LAMMPS data file via write_data, version 3 Mar 2020, timestep = 10000

477 atoms
1 atom types
476 bonds
1 bond types
475 angles
1 angle types
474 dihedrals
1 dihedral types

-2.5000000000000000e+02 2.5000000000000000e+02 xlo xhi
-2.5000000000000000e+02 2.5000000000000000e+02 ylo yhi
-2.5000000000000000e+02 2.5000000000000000e+02 zlo zhi

Masses

1 1

Pair Coeffs # soft

1 1

Bond Coeffs # fene

1 30 1.5 1 1

Angle Coeffs # harmonic

1 10 109.5

Atoms # full

1 1 1 0.0000000000000000e+00 -2.2869353335245458e+02 0.0000000000000000e+00 0.0000000000000000e+00 0 0 0
2 1 1 0.0000000000000000e+00 -2.2773263615349529e+02 0.0000000000000000e+00 0.0000000000000000e+00 0 0 0
3 1 1 0.0000000000000000e+00 -2.2677173895453600e+02 0.0000000000000000e+00 0.0000000000000000e+00 0 0 0
4 1 1 0.0000000000000000e+00 -2.2581084175557672e+02 0.0000000000000000e+00 0.0000000000000000e+00 0 0 0
5 1 1 0.0000000000000000e+00 -2.2484994455661740e+02 0.0000000000000000e+00 0.0000000000000000e+00 0 0 0
6 1 1 0.0000000000000000e+00 -2.2388904735765809e+02 0.0000000000000000e+00 0.0000000000000000e+00 0 0 0
7 1 1 0.0000000000000000e+00 -2.2292815015869877e+02 0.0000000000000000e+00 0.0000000000000000e+00 0 0 0
8 1 1 0.0000000000000000e+00 -2.2196725295973943e+02 0.0000000000000000e+00 0.0000000000000000e+00 0 0 0
9 1 1 0.0000000000000000e+00 -2.2100635576078008e+02 0.0000000000000000e+00 0.0000000000000000e+00 0 0 0
10 1 1 0.0000000000000000e+00 -2.2004545856182071e+02 0.0000000000000000e+00 0.0000000000000000e+00 0 0 0
11 1 1 0.0000000000000000e+00 -2.1908456136286134e+02 0.0000000000000000e+00 0.0000000000000000e+00 0 0 0
12 1 1 0.0000000000000000e+00 -2.1812366416390194e+02 0.0000000000000000e+00 0.0000000000000000e+00 0 0 0
13 1 1 0.0000000000000000e+00 -2.1716276696494253e+02 0.0000000000000000e+00 0.0000000000000000e+00 0 0 0
14 1 1 0.0000000000000000e+00 -2.1620186976598313e+02 0.0000000000000000e+00 0.0000000000000000e+00 0 0 0
15 1 1 0.0000000000000000e+00 -2.1524097256702370e+02 0.0000000000000000e+00 0.0000000000000000e+00 0 0 0
16 1 1 0.0000000000000000e+00 -2.1428007536806425e+02 0.0000000000000000e+00 0.0000000000000000e+00 0 0 0
17 1 1 0.0000000000000000e+00 -2.1331917816910479e+02 0.0000000000000000e+00 0.0000000000000000e+00 0 0 0
18 1 1 0.0000000000000000e+00 -2.1235828097014533e+02 0.0000000000000000e+00 0.0000000000000000e+00 0 0 0
19 1 1 0.0000000000000000e+00 -2.1139738377118584e+02 0.0000000000000000e+00 0.0000000000000000e+00 0 0 0
20 1 1 0.0000000000000000e+00 -2.1043648657222636e+02 0.0000000000000000e+00 0.0000000000000000e+00 0 0 0
21 1 1 0.0000000000000000e+00 -2.0947558937326687e+02 0.0000000000000000e+00 0.0000000000000000e+00 0 0 0
22 1 1 0.0000000000000000e+00 -2.0851469217430736e+02 0.0000000000000000e+00 0.0000000000000000e+00 0 0 0
23 1 1 0.0000000000000000e+00 -2.0755379497534784e+02 0.0000000000000000e+00 0.0000000000000000e+00 0 0 0
24 1 1 0.0000000000000000e+00 -2.0659289777638830e+02 0.0000000000000000e+00 0.0000000000000000e+00 0 0 0
25 1 1 0.0000000000000000e+00 -2.0563200057742876e+02 0.0000000000000000e+00 0.0000000000000000e+00 0 0 0
26 1 1 0.0000000000000000e+00 -2.0467110337846921e+02 0.0000000000000000e+00 0.0000000000000000e+00 0 0 0
27 1 1 0.0000000000000000e+00 -2.0371020617950964e+02 0.0000000000000000e+00 0.0000000000000000e+00 0 0 0
28 1 1 0.0000000000000000e+00 -2.0274930898055004e+02 0.0000000000000000e+00 0.0000000000000000e+00 0 0 0
29 1 1 0.0000000000000000e+00 -2.0178841178159047e+02 0.0000000000000000e+00 0.0000000000000000e+00 0 0 0
30 1 1 0.0000000000000000e+00 -2.0082751458263087e+02 0.0000000000000000e+00 0.0000000000000000e+00 0 0 0
31 1 1 0.0000000000000000e+00 -1.9986661738367124e+02 0.0000000000000000e+00 0.0000000000000000e+00 0 0 0
32 1 1 0.0000000000000000e+00 -1.9890572018471164e+02 0.0000000000000000e+00 0.0000000000000000e+00 0 0 0
33 1 1 0.0000000000000000e+00 -1.9794482298575201e+02 0.0000000000000000e+00 0.0000000000000000e+00 0 0 0
34 1 1 0.0000000000000000e+00 -1.9698392578679238e+02 0.0000000000000000e+00 0.0000000000000000e+00 0 0 0
35 1 1 0.0000000000000000e+00 -1.9602302858783273e+02 0.0000000000000000e+00 0.0000000000000000e+00 0 0 0
36 1 1 0.0000000000000000e+00 -1.9506213138887307e+02 0.0000000000000000e+00 0.0000000000000000e+00 0 0 0
37 1 1 0.0000000000000000e+00 -1.9410123418991338e+02 0.0000000000000000e+00 0.0000000000000000e+00 0 0 0
38 1 1 0.0000000000000000e+00 -1.9314033699095370e+02 0.0000000000000000e+00 0.0000000000000000e+00 0 0 0
39 1 1 0.0000000000000000e+00 -1.9217943979199399e+02 0.0000000000000000e+00 0.0000000000000000e+00 0 0 0
40 1 1 0.0000000000000000e+00 -1.9121854259303430e+02 0.0000000000000000e+00 0.0000000000000000e+00 0 0 0
41 1 1 0.0000000000000000e+00 -1.9025764539407459e+02 0.0000000000000000e+00 0.0000000000000000e+00 0 0 0
42 1 1 0.0000000000000000e+00 -1.8929674819511484e+02 0.0000000000000000e+00 0.0000000000000000e+00 0 0 0
43 1 1 0.0000000000000000e+00 -1.8833585099615510e+02 0.0000000000000000e+00 0.0000000000000000e+00 0 0 0
44 1 1 0.0000000000000000e+00 -1.8737495379719536e+02 0.0000000000000000e+00 0.0000000000000000e+00 0 0 0
45 1 1 0.0000000000000000e+00 -1.8641405659823562e+02 0.0000000000000000e+00 0.0000000000000000e+00 0 0 0
46 1 1 0.0000000000000000e+00 -1.8545315939927585e+02 0.0000000000000000e+00 0.0000000000000000e+00 0 0 0
47 1 1 0.0000000000000000e+00 -1.8449226220031608e+02 0.0000000000000000e+00 0.0000000000000000e+00 0 0 0
48 1 1 0.0000000000000000e+00 -1.8353136500135628e+02 0.0000000000000000e+00 0.0000000000000000e+00 0 0 0
49 1 1 0.0000000000000000e+00 -1.8257046780239651e+02 0.0000000000000000e+00 0.0000000000000000e+00 0 0 0
50 1 1 0.0000000000000000e+00 -1.8160957060343671e+02 0.0000000000000000e+00 0.0000000000000000e+00 0 0 0
51 1 1 0.0000000000000000e+00 -1.8064867340447691e+02 0.0000000000000000e+00 0.0000000000000000e+00 0 0 0
52 1 1 0.0000000000000000e+00 -1.7968777620551708e+02 0.0000000000000000e+00 0.0000000000000000e+00 0 0 0
53 1 1 0.0000000000000000e+00 -1.7872687900655728e+02 0.0000000000000000e+00 0.0000000000000000e+00 0 0 0
54 1 1 0.0000000000000000e+00 -1.7776598180759746e+02 0.0000000000000000e+00 0.0000000000000000e+00 0 0 0
55 1 1 0.0000000000000000e+00 -1.7680508460863760e+02 0.0000000000000000e+00 0.0000000000000000e+00 0 0 0
56 1 1 0.0000000000000000e+00 -1.7584418740967774e+02 0.0000000000000000e+00 0.0000000000000000e+00 0 0 0
57 1 1 0.0000000000000000e+00 -1.7488329021071789e+02 0.0000000000000000e+00 0.0000000000000000e+00 0 0 0
58 1 1 0.0000000000000000e+00 -1.7392239301175800e+02 0.0000000000000000e+00 0.0000000000000000e+00 0 0 0
59 1 1 0.0000000000000000e+00 -1.7296149581279815e+02 0.0000000000000000e+00 0.0000000000000000e+00 0 0 0
60 1 1 0.0000000000000000e+00 -1.7200059861383826e+02 0.0000000000000000e+00 0.0000000000000000e+00 0 0 0
61 1 1 0.0000000000000000e+00 -1.7103970141487841e+02 0.0000000000000000e+00 0.0000000000000000e+00 0 0 0
62 1 1 0.0000000000000000e+00 -1.7007880421591852e+02 0.0000000000000000e+00 0.0000000000000000e+00 0 0 0
63 1 1 0.0000000000000000e+00 -1.6911790701695864e+02 0.0000000000000000e+00 0.0000000000000000e+00 0 0 0
64 1 1 0.0000000000000000e+00 -1.6815700981799876e+02 0.0000000000000000e+00 0.0000000000000000e+00 0 0 0
65 1 1 0.0000000000000000e+00 -1.6719611261903884e+02 0.0000000000000000e+00 0.0000000000000000e+00 0 0 0
66 1 1 0.0000000000000000e+00 -1.6623521542007890e+02 0.0000000000000000e+00 0.0000000000000000e+00 0 0 0
67 1 1 0.0000000000000000e+00 -1.6527431822111899e+02 0.0000000000000000e+00 0.0000000000000000e+00 0 0 0
68 1 1 0.0000000000000000e+00 -1.6431342102215905e+02 0.0000000000000000e+00 0.0000000000000000e+00 0 0 0
69 1 1 0.0000000000000000e+00 -1.6335252382319911e+02 0.0000000000000000e+00 0.0000000000000000e+00 0 0 0
70 1 1 0.0000000000000000e+00 -1.6239162662423917e+02 0.0000000000000000e+00 0.0000000000000000e+00 0 0 0
71 1 1 0.0000000000000000e+00 -1.6143072942527922e+02 0.0000000000000000e+00 0.0000000000000000e+00 0 0 0
72 1 1 0.0000000000000000e+00 -1.6046983222631928e+02 0.0000000000000000e+00 0.0000000000000000e+00 0 0 0
73 1 1 0.0000000000000000e+00 -1.5950893502735931e+02 0.0000000000000000e+00 0.0000000000000000e+00 0 0 0
74 1 1 0.0000000000000000e+00 -1.5854803782839937e+02 0.0000000000000000e+00 0.0000000000000000e+00 0 0 0
75 1 1 0.0000000000000000e+00 -1.5758714062943940e+02 0.0000000000000000e+00 0.0000000000000000e+00 0 0 0
76 1 1 0.0000000000000000e+00 -1.5662624343047946e+02 0.0000000000000000e+00 0.0000000000000000e+00 0 0 0
77 1 1 0.0000000000000000e+00 -1.5566534623151949e+02 0.0000000000000000e+00 0.0000000000000000e+00 0 0 0
78 1 1 0.0000000000000000e+00 -1.5470444903255952e+02 0.0000000000000000e+00 0.0000000000000000e+00 0 0 0
79 1 1 0.0000000000000000e+00 -1.5374355183359955e+02 0.0000000000000000e+00 0.0000000000000000e+00 0 0 0
80 1 1 0.0000000000000000e+00 -1.5278265463463956e+02 0.0000000000000000e+00 0.0000000000000000e+00 0 0 0
81 1 1 0.0000000000000000e+00 -1.5182175743567959e+02 0.0000000000000000e+00 0.0000000000000000e+00 0 0 0
82 1 1 0.0000000000000000e+00 -1.5086086023671959e+02 0.0000000000000000e+00 0.0000000000000000e+00 0 0 0
83 1 1 0.0000000000000000e+00 -1.4989996303775959e+02 0.0000000000000000e+00 0.0000000000000000e+00 0 0 0
84 1 1 0.0000000000000000e+00 -1.4893906583879959e+02 0.0000000000000000e+00 0.0000000000000000e+00 0 0 0
85 1 1 0.0000000000000000e+00 -1.4797816863983959e+02 0.0000000000000000e+00 0.0000000000000000e+00 0 0 0
86 1 1 0.0000000000000000e+00 -1.4701727144087960e+02 0.0000000000000000e+00 0.0000000000000000e+00 0 0 0
87 1 1 0.0000000000000000e+00 -1.4605637424191957e+02 0.0000000000000000e+00 0.0000000000000000e+00 0 0 0
88 1 1 0.0000000000000000e+00 -1.4509547704295957e+02 0.0000000000000000e+00 0.0000000000000000e+00 0 0 0
89 1 1 0.0000000000000000e+00 -1.4413457984399957e+02 0.0000000000000000e+00 0.0000000000000000e+00 0 0 0
90 1 1 0.0000000000000000e+00 -1.4317368264503955e+02 0.0000000000000000e+00 0.0000000000000000e+00 0 0 0
91 1 1 0.0000000000000000e+00 -1.4221278544607952e+02 0.0000000000000000e+00 0.0000000000000000e+00 0 0 0
92 1 1 0.0000000000000000e+00 -1.4125188824711950e+02 0.0000000000000000e+00 0.0000000000000000e+00 0 0 0
93 1 1 0.0000000000000000e+00 -1.4029099104815950e+02 0.0000000000000000e+00 0.0000000000000000e+00 0 0 0
94 1 1 0.0000000000000000e+00 -1.3933009384919947e+02 0.0000000000000000e+00 0.0000000000000000e+00 0 0 0
95 1 1 0.0000000000000000e+00 -1.3836919665023945e+02 0.0000000000000000e+00 0.0000000000000000e+00 0 0 0
96 1 1 0.0000000000000000e+00 -1.3740829945127942e+02 0.0000000000000000e+00 0.0000000000000000e+00 0 0 0
97 1 1 0.0000000000000000e+00 -1.3644740225231939e+02 0.0000000000000000e+00 0.0000000000000000e+00 0 0 0
98 1 1 0.0000000000000000e+00 -1.3548650505335934e+02 0.0000000000000000e+00 0.0000000000000000e+00 0 0 0
99 1 1 0.0000000000000000e+00 -1.3452560785439931e+02 0.0000000000000000e+00 0.0000000000000000e+00 0 0 0
100 1 1 0.0000000000000000e+00 -1.3356471065543926e+02 0.0000000000000000e+00 0.0000000000000000e+00 0 0 0
101 1 1 0.0000000000000000e+00 -1.3260381345647923e+02 0.0000000000000000e+00 0.0000000000000000e+00 0 0 0
102 1 1 0.0000000000000000e+00 -1.3164291625751918e+02 0.0000000000000000e+00 0.0000000000000000e+00 0 0 0
103 1 1 0.0000000000000000e+00 -1.3068201905855915e+02 0.0000000000000000e+00 0.0000000000000000e+00 0 0 0
104 1 1 0.0000000000000000e+00 -1.2972112185959909e+02 0.0000000000000000e+00 0.0000000000000000e+00 0 0 0
105 1 1 0.0000000000000000e+00 -1.2876022466063904e+02 0.0000000000000000e+00 0.0000000000000000e+00 0 0 0
106 1 1 0.0000000000000000e+00 -1.2779932746167898e+02 0.0000000000000000e+00 0.0000000000000000e+00 0 0 0
107 1 1 0.0000000000000000e+00 -1.2683843026271893e+02 0.0000000000000000e+00 0.0000000000000000e+00 0 0 0
108 1 1 0.0000000000000000e+00 -1.2587753306375888e+02 0.0000000000000000e+00 0.0000000000000000e+00 0 0 0
109 1 1 0.0000000000000000e+00 -1.2491663586479882e+02 0.0000000000000000e+00 0.0000000000000000e+00 0 0 0
110 1 1 0.0000000000000000e+00 -1.2395573866583877e+02 0.0000000000000000e+00 0.0000000000000000e+00 0 0 0
111 1 1 0.0000000000000000e+00 -1.2299484146687871e+02 0.0000000000000000e+00 0.0000000000000000e+00 0 0 0
112 1 1 0.0000000000000000e+00 -1.2203394426791866e+02 0.0000000000000000e+00 0.0000000000000000e+00 0 0 0
113 1 1 0.0000000000000000e+00 -1.2107304706895860e+02 0.0000000000000000e+00 0.0000000000000000e+00 0 0 0
114 1 1 0.0000000000000000e+00 -1.2011214986999855e+02 0.0000000000000000e+00 0.0000000000000000e+00 0 0 0
115 1 1 0.0000000000000000e+00 -1.1915125267103849e+02 0.0000000000000000e+00 0.0000000000000000e+00 0 0 0
116 1 1 0.0000000000000000e+00 -1.1819035547207842e+02 0.0000000000000000e+00 0.0000000000000000e+00 0 0 0
117 1 1 0.0000000000000000e+00 -1.1722945827311835e+02 0.0000000000000000e+00 0.0000000000000000e+00 0 0 0
118 1 1 0.0000000000000000e+00 -1.1626856107415830e+02 0.0000000000000000e+00 0.0000000000000000e+00 0 0 0
119 1 1 0.0000000000000000e+00 -1.1530766387519823e+02 0.0000000000000000e+00 0.0000000000000000e+00 0 0 0
120 1 1 0.0000000000000000e+00 -1.1434676667623816e+02 0.0000000000000000e+00 0.0000000000000000e+00 0 0 0
121 1 1 0.0000000000000000e+00 -1.1338586947727809e+02 0.0000000000000000e+00 0.0000000000000000e+00 0 0 0
122 1 1 0.0000000000000000e+00 -1.1242497227831801e+02 0.0000000000000000e+00 0.0000000000000000e+00 0 0 0
123 1 1 0.0000000000000000e+00 -1.1146407507935794e+02 0.0000000000000000e+00 0.0000000000000000e+00 0 0 0
124 1 1 0.0000000000000000e+00 -1.1050317788039786e+02 0.0000000000000000e+00 0.0000000000000000e+00 0 0 0
125 1 1 0.0000000000000000e+00 -1.0954228068143779e+02 0.0000000000000000e+00 0.0000000000000000e+00 0 0 0
126 1 1 0.0000000000000000e+00 -1.0858138348247770e+02 0.0000000000000000e+00 0.0000000000000000e+00 0 0 0
127 1 1 0.0000000000000000e+00 -1.0762048628351764e+02 0.0000000000000000e+00 0.0000000000000000e+00 0 0 0
128 1 1 0.0000000000000000e+00 -1.0665958908455755e+02 0.0000000000000000e+00 0.0000000000000000e+00 0 0 0
129 1 1 0.0000000000000000e+00 -1.0569869188559748e+02 0.0000000000000000e+00 0.0000000000000000e+00 0 0 0
130 1 1 0.0000000000000000e+00 -1.0473779468663740e+02 0.0000000000000000e+00 0.0000000000000000e+00 0 0 0
131 1 1 0.0000000000000000e+00 -1.0377689748767733e+02 0.0000000000000000e+00 0.0000000000000000e+00 0 0 0
132 1 1 0.0000000000000000e+00 -1.0281600028871725e+02 0.0000000000000000e+00 0.0000000000000000e+00 0 0 0
133 1 1 0.0000000000000000e+00 -1.0185510308975718e+02 0.0000000000000000e+00 0.0000000000000000e+00 0 0 0
134 1 1 0.0000000000000000e+00 -1.0089420589079710e+02 0.0000000000000000e+00 0.0000000000000000e+00 0 0 0
135 1 1 0.0000000000000000e+00 -9.9933308691837027e+01 0.0000000000000000e+00 0.0000000000000000e+00 0 0 0
136 1 1 0.0000000000000000e+00 -9.8972411492876944e+01 0.0000000000000000e+00 0.0000000000000000e+00 0 0 0
137 1 1 0.0000000000000000e+00 -9.8011514293916875e+01 0.0000000000000000e+00 0.0000000000000000e+00 0 0 0
138 1 1 0.0000000000000000e+00 -9.7050617094956792e+01 0.0000000000000000e+00 0.0000000000000000e+00 0 0 0
139 1 1 0.0000000000000000e+00 -9.6089719895996723e+01 0.0000000000000000e+00 0.0000000000000000e+00 0 0 0
140 1 1 0.0000000000000000e+00 -9.5128822697036654e+01 0.0000000000000000e+00 0.0000000000000000e+00 0 0 0
141 1 1 0.0000000000000000e+00 -9.4167925498076599e+01 0.0000000000000000e+00 0.0000000000000000e+00 0 0 0
142 1 1 0.0000000000000000e+00 -9.3207028299116544e+01 0.0000000000000000e+00 0.0000000000000000e+00 0 0 0
143 1 1 0.0000000000000000e+00 -9.2246131100156475e+01 0.0000000000000000e+00 0.0000000000000000e+00 0 0 0
144 1 1 0.0000000000000000e+00 -9.1285233901196420e+01 0.0000000000000000e+00 0.0000000000000000e+00 0 0 0
145 1 1 0.0000000000000000e+00 -9.0324336702236366e+01 0.0000000000000000e+00 0.0000000000000000e+00 0 0 0
146 1 1 0.0000000000000000e+00 -8.9363439503276311e+01 0.0000000000000000e+00 0.0000000000000000e+00 0 0 0
147 1 1 0.0000000000000000e+00 -8.8402542304316256e+01 0.0000000000000000e+00 0.0000000000000000e+00 0 0 0
148 1 1 0.0000000000000000e+00 -8.7441645105356201e+01 0.0000000000000000e+00 0.0000000000000000e+00 0 0 0
149 1 1 0.0000000000000000e+00 -8.6480747906396147e+01 0.0000000000000000e+00 0.0000000000000000e+00 0 0 0
150 1 1 0.0000000000000000e+00 -8.5519850707436092e+01 0.0000000000000000e+00 0.0000000000000000e+00 0 0 0
151 1 1 0.0000000000000000e+00 -8.4558953508476037e+01 0.0000000000000000e+00 0.0000000000000000e+00 0 0 0
152 1 1 0.0000000000000000e+00 -8.3598056309515982e+01 0.0000000000000000e+00 0.0000000000000000e+00 0 0 0
153 1 1 0.0000000000000000e+00 -8.2637159110555928e+01 0.0000000000000000e+00 0.0000000000000000e+00 0 0 0
154 1 1 0.0000000000000000e+00 -8.1676261911595873e+01 0.0000000000000000e+00 0.0000000000000000e+00 0 0 0
155 1 1 0.0000000000000000e+00 -8.0715364712635832e+01 0.0000000000000000e+00 0.0000000000000000e+00 0 0 0
156 1 1 0.0000000000000000e+00 -7.9754467513675792e+01 0.0000000000000000e+00 0.0000000000000000e+00 0 0 0
157 1 1 0.0000000000000000e+00 -7.8793570314715751e+01 0.0000000000000000e+00 0.0000000000000000e+00 0 0 0
158 1 1 0.0000000000000000e+00 -7.7832673115755711e+01 0.0000000000000000e+00 0.0000000000000000e+00 0 0 0
159 1 1 0.0000000000000000e+00 -7.6871775916795684e+01 0.0000000000000000e+00 0.0000000000000000e+00 0 0 0
160 1 1 0.0000000000000000e+00 -7.5910878717835658e+01 0.0000000000000000e+00 0.0000000000000000e+00 0 0 0
161 1 1 0.0000000000000000e+00 -7.4949981518875632e+01 0.0000000000000000e+00 0.0000000000000000e+00 0 0 0
162 1 1 0.0000000000000000e+00 -7.3989084319915619e+01 0.0000000000000000e+00 0.0000000000000000e+00 0 0 0
163 1 1 0.0000000000000000e+00 -7.3028187120955607e+01 0.0000000000000000e+00 0.0000000000000000e+00 0 0 0
164 1 1 0.0000000000000000e+00 -7.2067289921995595e+01 0.0000000000000000e+00 0.0000000000000000e+00 0 0 0
165 1 1 0.0000000000000000e+00 -7.1106392723035583e+01 0.0000000000000000e+00 0.0000000000000000e+00 0 0 0
166 1 1 0.0000000000000000e+00 -7.0145495524075571e+01 0.0000000000000000e+00 0.0000000000000000e+00 0 0 0
167 1 1 0.0000000000000000e+00 -6.9184598325115573e+01 0.0000000000000000e+00 0.0000000000000000e+00 0 0 0
168 1 1 0.0000000000000000e+00 -6.8223701126155589e+01 0.0000000000000000e+00 0.0000000000000000e+00 0 0 0
169 1 1 0.0000000000000000e+00 -6.7262803927195620e+01 0.0000000000000000e+00 0.0000000000000000e+00 0 0 0
170 1 1 0.0000000000000000e+00 -6.6301906728235650e+01 0.0000000000000000e+00 0.0000000000000000e+00 0 0 0
171 1 1 0.0000000000000000e+00 -6.5341009529275695e+01 0.0000000000000000e+00 0.0000000000000000e+00 0 0 0
172 1 1 0.0000000000000000e+00 -6.4380112330315740e+01 0.0000000000000000e+00 0.0000000000000000e+00 0 0 0
173 1 1 0.0000000000000000e+00 -6.3419215131355791e+01 0.0000000000000000e+00 0.0000000000000000e+00 0 0 0
174 1 1 0.0000000000000000e+00 -6.2458317932395850e+01 0.0000000000000000e+00 0.0000000000000000e+00 0 0 0
175 1 1 0.0000000000000000e+00 -6.1497420733435902e+01 0.0000000000000000e+00 0.0000000000000000e+00 0 0 0
176 1 1 0.0000000000000000e+00 -6.0536523534475954e+01 0.0000000000000000e+00 0.0000000000000000e+00 0 0 0
177 1 1 0.0000000000000000e+00 -5.9575626335516013e+01 0.0000000000000000e+00 0.0000000000000000e+00 0 0 0
178 1 1 0.0000000000000000e+00 -5.8614729136556065e+01 0.0000000000000000e+00 0.0000000000000000e+00 0 0 0
179 1 1 0.0000000000000000e+00 -5.7653831937596124e+01 0.0000000000000000e+00 0.0000000000000000e+00 0 0 0
180 1 1 0.0000000000000000e+00 -5.6692934738636175e+01 0.0000000000000000e+00 0.0000000000000000e+00 0 0 0
181 1 1 0.0000000000000000e+00 -5.5732037539676227e+01 0.0000000000000000e+00 0.0000000000000000e+00 0 0 0
182 1 1 0.0000000000000000e+00 -5.4771140340716286e+01 0.0000000000000000e+00 0.0000000000000000e+00 0 0 0
183 1 1 0.0000000000000000e+00 -5.3810243141756338e+01 0.0000000000000000e+00 0.0000000000000000e+00 0 0 0
184 1 1 0.0000000000000000e+00 -5.2849345942796390e+01 0.0000000000000000e+00 0.0000000000000000e+00 0 0 0
185 1 1 0.0000000000000000e+00 -5.1888448743836449e+01 0.0000000000000000e+00 0.0000000000000000e+00 0 0 0
186 1 1 0.0000000000000000e+00 -5.0927551544876501e+01 0.0000000000000000e+00 0.0000000000000000e+00 0 0 0
187 1 1 0.0000000000000000e+00 -4.9966654345916567e+01 0.0000000000000000e+00 0.0000000000000000e+00 0 0 0
188 1 1 0.0000000000000000e+00 -4.9005757146956618e+01 0.0000000000000000e+00 0.0000000000000000e+00 0 0 0
189 1 1 0.0000000000000000e+00 -4.8044859947996677e+01 0.0000000000000000e+00 0.0000000000000000e+00 0 0 0
190 1 1 0.0000000000000000e+00 -4.7083962749036736e+01 0.0000000000000000e+00 0.0000000000000000e+00 0 0 0
191 1 1 0.0000000000000000e+00 -4.6123065550076795e+01 0.0000000000000000e+00 0.0000000000000000e+00 0 0 0
192 1 1 0.0000000000000000e+00 -4.5162168351116854e+01 0.0000000000000000e+00 0.0000000000000000e+00 0 0 0
193 1 1 0.0000000000000000e+00 -4.4201271152156913e+01 0.0000000000000000e+00 0.0000000000000000e+00 0 0 0
194 1 1 0.0000000000000000e+00 -4.3240373953196972e+01 0.0000000000000000e+00 0.0000000000000000e+00 0 0 0
195 1 1 0.0000000000000000e+00 -4.2279476754237031e+01 0.0000000000000000e+00 0.0000000000000000e+00 0 0 0
196 1 1 0.0000000000000000e+00 -4.1318579555277090e+01 0.0000000000000000e+00 0.0000000000000000e+00 0 0 0
197 1 1 0.0000000000000000e+00 -4.0357682356317149e+01 0.0000000000000000e+00 0.0000000000000000e+00 0 0 0
198 1 1 0.0000000000000000e+00 -3.9396785157357208e+01 0.0000000000000000e+00 0.0000000000000000e+00 0 0 0
199 1 1 0.0000000000000000e+00 -3.8435887958397267e+01 0.0000000000000000e+00 0.0000000000000000e+00 0 0 0
200 1 1 0.0000000000000000e+00 -3.7474990759437325e+01 0.0000000000000000e+00 0.0000000000000000e+00 0 0 0
201 1 1 0.0000000000000000e+00 -3.6514093560477384e+01 0.0000000000000000e+00 0.0000000000000000e+00 0 0 0
202 1 1 0.0000000000000000e+00 -3.5553196361517443e+01 0.0000000000000000e+00 0.0000000000000000e+00 0 0 0
203 1 1 0.0000000000000000e+00 -3.4592299162557502e+01 0.0000000000000000e+00 0.0000000000000000e+00 0 0 0
204 1 1 0.0000000000000000e+00 -3.3631401963597561e+01 0.0000000000000000e+00 0.0000000000000000e+00 0 0 0
205 1 1 0.0000000000000000e+00 -3.2670504764637620e+01 0.0000000000000000e+00 0.0000000000000000e+00 0 0 0
206 1 1 0.0000000000000000e+00 -3.1709607565677679e+01 0.0000000000000000e+00 0.0000000000000000e+00 0 0 0
207 1 1 0.0000000000000000e+00 -3.0748710366717738e+01 0.0000000000000000e+00 0.0000000000000000e+00 0 0 0
208 1 1 0.0000000000000000e+00 -2.9787813167757797e+01 0.0000000000000000e+00 0.0000000000000000e+00 0 0 0
209 1 1 0.0000000000000000e+00 -2.8826915968797856e+01 0.0000000000000000e+00 0.0000000000000000e+00 0 0 0
210 1 1 0.0000000000000000e+00 -2.7866018769837915e+01 0.0000000000000000e+00 0.0000000000000000e+00 0 0 0
211 1 1 0.0000000000000000e+00 -2.6905121570877974e+01 0.0000000000000000e+00 0.0000000000000000e+00 0 0 0
212 1 1 0.0000000000000000e+00 -2.5944224371918033e+01 0.0000000000000000e+00 0.0000000000000000e+00 0 0 0
213 1 1 0.0000000000000000e+00 -2.4983327172958095e+01 0.0000000000000000e+00 0.0000000000000000e+00 0 0 0
214 1 1 0.0000000000000000e+00 -2.4022429973998154e+01 0.0000000000000000e+00 0.0000000000000000e+00 0 0 0
215 1 1 0.0000000000000000e+00 -2.3061532775038216e+01 0.0000000000000000e+00 0.0000000000000000e+00 0 0 0
216 1 1 0.0000000000000000e+00 -2.2100635576078279e+01 0.0000000000000000e+00 0.0000000000000000e+00 0 0 0
217 1 1 0.0000000000000000e+00 -2.1139738377118345e+01 0.0000000000000000e+00 0.0000000000000000e+00 0 0 0
218 1 1 0.0000000000000000e+00 -2.0178841178158411e+01 0.0000000000000000e+00 0.0000000000000000e+00 0 0 0
219 1 1 0.0000000000000000e+00 -1.9217943979198481e+01 0.0000000000000000e+00 0.0000000000000000e+00 0 0 0
220 1 1 0.0000000000000000e+00 -1.8257046780238550e+01 0.0000000000000000e+00 0.0000000000000000e+00 0 0 0
221 1 1 0.0000000000000000e+00 -1.7296149581278623e+01 0.0000000000000000e+00 0.0000000000000000e+00 0 0 0
222 1 1 0.0000000000000000e+00 -1.6335252382318700e+01 0.0000000000000000e+00 0.0000000000000000e+00 0 0 0
223 1 1 0.0000000000000000e+00 -1.5374355183358777e+01 0.0000000000000000e+00 0.0000000000000000e+00 0 0 0
224 1 1 0.0000000000000000e+00 -1.4413457984398852e+01 0.0000000000000000e+00 0.0000000000000000e+00 0 0 0
225 1 1 0.0000000000000000e+00 -1.3452560785438930e+01 0.0000000000000000e+00 0.0000000000000000e+00 0 0 0
226 1 1 0.0000000000000000e+00 -1.2491663586479007e+01 0.0000000000000000e+00 0.0000000000000000e+00 0 0 0
227 1 1 0.0000000000000000e+00 -1.1530766387519083e+01 0.0000000000000000e+00 0.0000000000000000e+00 0 0 0
228 1 1 0.0000000000000000e+00 -1.0569869188559160e+01 0.0000000000000000e+00 0.0000000000000000e+00 0 0 0
229 1 1 0.0000000000000000e+00 -9.6089719895992349e+00 0.0000000000000000e+00 0.0000000000000000e+00 0 0 0
230 1 1 0.0000000000000000e+00 -8.6480747906393134e+00 0.0000000000000000e+00 0.0000000000000000e+00 0 0 0
231 1 1 0.0000000000000000e+00 -7.6871775916793892e+00 0.0000000000000000e+00 0.0000000000000000e+00 0 0 0
232 1 1 0.0000000000000000e+00 -6.7262803927194650e+00 0.0000000000000000e+00 0.0000000000000000e+00 0 0 0
233 1 1 0.0000000000000000e+00 -5.7653831937595417e+00 0.0000000000000000e+00 0.0000000000000000e+00 0 0 0
234 1 1 0.0000000000000000e+00 -4.8044859947996184e+00 0.0000000000000000e+00 0.0000000000000000e+00 0 0 0
235 1 1 0.0000000000000000e+00 -3.8435887958396950e+00 0.0000000000000000e+00 0.0000000000000000e+00 0 0 0
236 1 1 0.0000000000000000e+00 -2.8826915968797708e+00 0.0000000000000000e+00 0.0000000000000000e+00 0 0 0
237 1 1 0.0000000000000000e+00 -1.9217943979198495e+00 0.0000000000000000e+00 0.0000000000000000e+00 0 0 0
238 1 1 0.0000000000000000e+00 -9.6089719895992121e-01 0.0000000000000000e+00 0.0000000000000000e+00 0 0 0
239 1 1 0.0000000000000000e+00 0.0000000000000000e+00 0.0000000000000000e+00 0.0000000000000000e+00 0 0 0
240 1 1 0.0000000000000000e+00 9.6089719895992121e-01 0.0000000000000000e+00 0.0000000000000000e+00 0 0 0
241 1 1 0.0000000000000000e+00 1.9217943979198495e+00 0.0000000000000000e+00 0.0000000000000000e+00 0 0 0
242 1 1 0.0000000000000000e+00 2.8826915968797708e+00 0.0000000000000000e+00 0.0000000000000000e+00 0 0 0
243 1 1 0.0000000000000000e+00 3.8435887958396950e+00 0.0000000000000000e+00 0.0000000000000000e+00 0 0 0
244 1 1 0.0000000000000000e+00 4.8044859947996184e+00 0.0000000000000000e+00 0.0000000000000000e+00 0 0 0
245 1 1 0.0000000000000000e+00 5.7653831937595417e+00 0.0000000000000000e+00 0.0000000000000000e+00 0 0 0
246 1 1 0.0000000000000000e+00 6.7262803927194650e+00 0.0000000000000000e+00 0.0000000000000000e+00 0 0 0
247 1 1 0.0000000000000000e+00 7.6871775916793892e+00 0.0000000000000000e+00 0.0000000000000000e+00 0 0 0
248 1 1 0.0000000000000000e+00 8.6480747906393134e+00 0.0000000000000000e+00 0.0000000000000000e+00 0 0 0
249 1 1 0.0000000000000000e+00 9.6089719895992349e+00 0.0000000000000000e+00 0.0000000000000000e+00 0 0 0
250 1 1 0.0000000000000000e+00 1.0569869188559160e+01 0.0000000000000000e+00 0.0000000000000000e+00 0 0 0
251 1 1 0.0000000000000000e+00 1.1530766387519083e+01 0.0000000000000000e+00 0.0000000000000000e+00 0 0 0
252 1 1 0.0000000000000000e+00 1.2491663586479007e+01 0.0000000000000000e+00 0.0000000000000000e+00 0 0 0
253 1 1 0.0000000000000000e+00 1.3452560785438930e+01 0.0000000000000000e+00 0.0000000000000000e+00 0 0 0
254 1 1 0.0000000000000000e+00 1.4413457984398852e+01 0.0000000000000000e+00 0.0000000000000000e+00 0 0 0
255 1 1 0.0000000000000000e+00 1.5374355183358777e+01 0.0000000000000000e+00 0.0000000000000000e+00 0 0 0
256 1 1 0.0000000000000000e+00 1.6335252382318700e+01 0.0000000000000000e+00 0.0000000000000000e+00 0 0 0
257 1 1 0.0000000000000000e+00 1.7296149581278623e+01 0.0000000000000000e+00 0.0000000000000000e+00 0 0 0
258 1 1 0.0000000000000000e+00 1.8257046780238550e+01 0.0000000000000000e+00 0.0000000000000000e+00 0 0 0
259 1 1 0.0000000000000000e+00 1.9217943979198481e+01 0.0000000000000000e+00 0.0000000000000000e+00 0 0 0
260 1 1 0.0000000000000000e+00 2.0178841178158411e+01 0.0000000000000000e+00 0.0000000000000000e+00 0 0 0
261 1 1 0.0000000000000000e+00 2.1139738377118345e+01 0.0000000000000000e+00 0.0000000000000000e+00 0 0 0
262 1 1 0.0000000000000000e+00 2.2100635576078279e+01 0.0000000000000000e+00 0.0000000000000000e+00 0 0 0
263 1 1 0.0000000000000000e+00 2.3061532775038216e+01 0.0000000000000000e+00 0.0000000000000000e+00 0 0 0
264 1 1 0.0000000000000000e+00 2.4022429973998154e+01 0.0000000000000000e+00 0.0000000000000000e+00 0 0 0
265 1 1 0.0000000000000000e+00 2.4983327172958095e+01 0.0000000000000000e+00 0.0000000000000000e+00 0 0 0
266 1 1 0.0000000000000000e+00 2.5944224371918033e+01 0.0000000000000000e+00 0.0000000000000000e+00 0 0 0
267 1 1 0.0000000000000000e+00 2.6905121570877974e+01 0.0000000000000000e+00 0.0000000000000000e+00 0 0 0
268 1 1 0.0000000000000000e+00 2.7866018769837915e+01 0.0000000000000000e+00 0.0000000000000000e+00 0 0 0
269 1 1 0.0000000000000000e+00 2.8826915968797856e+01 0.0000000000000000e+00 0.0000000000000000e+00 0 0 0
270 1 1 0.0000000000000000e+00 2.9787813167757797e+01 0.0000000000000000e+00 0.0000000000000000e+00 0 0 0
271 1 1 0.0000000000000000e+00 3.0748710366717738e+01 0.0000000000000000e+00 0.0000000000000000e+00 0 0 0
272 1 1 0.0000000000000000e+00 3.1709607565677679e+01 0.0000000000000000e+00 0.0000000000000000e+00 0 0 0
273 1 1 0.0000000000000000e+00 3.2670504764637620e+01 0.0000000000000000e+00 0.0000000000000000e+00 0 0 0
274 1 1 0.0000000000000000e+00 3.3631401963597561e+01 0.0000000000000000e+00 0.0000000000000000e+00 0 0 0
275 1 1 0.0000000000000000e+00 3.4592299162557502e+01 0.0000000000000000e+00 0.0000000000000000e+00 0 0 0
276 1 1 0.0000000000000000e+00 3.5553196361517443e+01 0.0000000000000000e+00 0.0000000000000000e+00 0 0 0
277 1 1 0.0000000000000000e+00 3.6514093560477384e+01 0.0000000000000000e+00 0.0000000000000000e+00 0 0 0
278 1 1 0.0000000000000000e+00 3.7474990759437325e+01 0.0000000000000000e+00 0.0000000000000000e+00 0 0 0
279 1 1 0.0000000000000000e+00 3.8435887958397267e+01 0.0000000000000000e+00 0.0000000000000000e+00 0 0 0
280 1 1 0.0000000000000000e+00 3.9396785157357208e+01 0.0000000000000000e+00 0.0000000000000000e+00 0 0 0
281 1 1 0.0000000000000000e+00 4.0357682356317149e+01 0.0000000000000000e+00 0.0000000000000000e+00 0 0 0
282 1 1 0.0000000000000000e+00 4.1318579555277090e+01 0.0000000000000000e+00 0.0000000000000000e+00 0 0 0
283 1 1 0.0000000000000000e+00 4.2279476754237031e+01 0.0000000000000000e+00 0.0000000000000000e+00 0 0 0
284 1 1 0.0000000000000000e+00 4.3240373953196972e+01 0.0000000000000000e+00 0.0000000000000000e+00 0 0 0
285 1 1 0.0000000000000000e+00 4.4201271152156913e+01 0.0000000000000000e+00 0.0000000000000000e+00 0 0 0
286 1 1 0.0000000000000000e+00 4.5162168351116854e+01 0.0000000000000000e+00 0.0000000000000000e+00 0 0 0
287 1 1 0.0000000000000000e+00 4.6123065550076795e+01 0.0000000000000000e+00 0.0000000000000000e+00 0 0 0
288 1 1 0.0000000000000000e+00 4.7083962749036736e+01 0.0000000000000000e+00 0.0000000000000000e+00 0 0 0
289 1 1 0.0000000000000000e+00 4.8044859947996677e+01 0.0000000000000000e+00 0.0000000000000000e+00 0 0 0
290 1 1 0.0000000000000000e+00 4.9005757146956618e+01 0.0000000000000000e+00 0.0000000000000000e+00 0 0 0
291 1 1 0.0000000000000000e+00 4.9966654345916567e+01 0.0000000000000000e+00 0.0000000000000000e+00 0 0 0
292 1 1 0.0000000000000000e+00 5.0927551544876501e+01 0.0000000000000000e+00 0.0000000000000000e+00 0 0 0
293 1 1 0.0000000000000000e+00 5.1888448743836449e+01 0.0000000000000000e+00 0.0000000000000000e+00 0 0 0
294 1 1 0.0000000000000000e+00 5.2849345942796390e+01 0.0000000000000000e+00 0.0000000000000000e+00 0 0 0
295 1 1 0.0000000000000000e+00 5.3810243141756338e+01 0.0000000000000000e+00 0.0000000000000000e+00 0 0 0
296 1 1 0.0000000000000000e+00 5.4771140340716286e+01 0.0000000000000000e+00 0.0000000000000000e+00 0 0 0
297 1 1 0.0000000000000000e+00 5.5732037539676227e+01 0.0000000000000000e+00 0.0000000000000000e+00 0 0 0
298 1 1 0.0000000000000000e+00 5.6692934738636175e+01 0.0000000000000000e+00 0.0000000000000000e+00 0 0 0
299 1 1 0.0000000000000000e+00 5.7653831937596124e+01 0.0000000000000000e+00 0.0000000000000000e+00 0 0 0
300 1 1 0.0000000000000000e+00 5.8614729136556065e+01 0.0000000000000000e+00 0.0000000000000000e+00 0 0 0
301 1 1 0.0000000000000000e+00 5.9575626335516013e+01 0.0000000000000000e+00 0.0000000000000000e+00 0 0 0
302 1 1 0.0000000000000000e+00 6.0536523534475954e+01 0.0000000000000000e+00 0.0000000000000000e+00 0 0 0
303 1 1 0.0000000000000000e+00 6.1497420733435902e+01 0.0000000000000000e+00 0.0000000000000000e+00 0 0 0
304 1 1 0.0000000000000000e+00 6.2458317932395850e+01 0.0000000000000000e+00 0.0000000000000000e+00 0 0 0
305 1 1 0.0000000000000000e+00 6.3419215131355791e+01 0.0000000000000000e+00 0.0000000000000000e+00 0 0 0
306 1 1 0.0000000000000000e+00 6.4380112330315740e+01 0.0000000000000000e+00 0.0000000000000000e+00 0 0 0
307 1 1 0.0000000000000000e+00 6.5341009529275695e+01 0.0000000000000000e+00 0.0000000000000000e+00 0 0 0
308 1 1 0.0000000000000000e+00 6.6301906728235650e+01 0.0000000000000000e+00 0.0000000000000000e+00 0 0 0
309 1 1 0.0000000000000000e+00 6.7262803927195620e+01 0.0000000000000000e+00 0.0000000000000000e+00 0 0 0
310 1 1 0.0000000000000000e+00 6.8223701126155589e+01 0.0000000000000000e+00 0.0000000000000000e+00 0 0 0
311 1 1 0.0000000000000000e+00 6.9184598325115573e+01 0.0000000000000000e+00 0.0000000000000000e+00 0 0 0
312 1 1 0.0000000000000000e+00 7.0145495524075571e+01 0.0000000000000000e+00 0.0000000000000000e+00 0 0 0
313 1 1 0.0000000000000000e+00 7.1106392723035583e+01 0.0000000000000000e+00 0.0000000000000000e+00 0 0 0
314 1 1 0.0000000000000000e+00 7.2067289921995595e+01 0.0000000000000000e+00 0.0000000000000000e+00 0 0 0
315 1 1 0.0000000000000000e+00 7.3028187120955607e+01 0.0000000000000000e+00 0.0000000000000000e+00 0 0 0
316 1 1 0.0000000000000000e+00 7.3989084319915619e+01 0.0000000000000000e+00 0.0000000000000000e+00 0 0 0
317 1 1 0.0000000000000000e+00 7.4949981518875632e+01 0.0000000000000000e+00 0.0000000000000000e+00 0 0 0
318 1 1 0.0000000000000000e+00 7.5910878717835658e+01 0.0000000000000000e+00 0.0000000000000000e+00 0 0 0
319 1 1 0.0000000000000000e+00 7.6871775916795684e+01 0.0000000000000000e+00 0.0000000000000000e+00 0 0 0
320 1 1 0.0000000000000000e+00 7.7832673115755711e+01 0.0000000000000000e+00 0.0000000000000000e+00 0 0 0
321 1 1 0.0000000000000000e+00 7.8793570314715751e+01 0.0000000000000000e+00 0.0000000000000000e+00 0 0 0
322 1 1 0.0000000000000000e+00 7.9754467513675792e+01 0.0000000000000000e+00 0.0000000000000000e+00 0 0 0
323 1 1 0.0000000000000000e+00 8.0715364712635832e+01 0.0000000000000000e+00 0.0000000000000000e+00 0 0 0
324 1 1 0.0000000000000000e+00 8.1676261911595873e+01 0.0000000000000000e+00 0.0000000000000000e+00 0 0 0
325 1 1 0.0000000000000000e+00 8.2637159110555928e+01 0.0000000000000000e+00 0.0000000000000000e+00 0 0 0
326 1 1 0.0000000000000000e+00 8.3598056309515982e+01 0.0000000000000000e+00 0.0000000000000000e+00 0 0 0
327 1 1 0.0000000000000000e+00 8.4558953508476037e+01 0.0000000000000000e+00 0.0000000000000000e+00 0 0 0
328 1 1 0.0000000000000000e+00 8.5519850707436092e+01 0.0000000000000000e+00 0.0000000000000000e+00 0 0 0
329 1 1 0.0000000000000000e+00 8.6480747906396147e+01 0.0000000000000000e+00 0.0000000000000000e+00 0 0 0
330 1 1 0.0000000000000000e+00 8.7441645105356201e+01 0.0000000000000000e+00 0.0000000000000000e+00 0 0 0
331 1 1 0.0000000000000000e+00 8.8402542304316256e+01 0.0000000000000000e+00 0.0000000000000000e+00 0 0 0
332 1 1 0.0000000000000000e+00 8.9363439503276311e+01 0.0000000000000000e+00 0.0000000000000000e+00 0 0 0
333 1 1 0.0000000000000000e+00 9.0324336702236366e+01 0.0000000000000000e+00 0.0000000000000000e+00 0 0 0
334 1 1 0.0000000000000000e+00 9.1285233901196420e+01 0.0000000000000000e+00 0.0000000000000000e+00 0 0 0
335 1 1 0.0000000000000000e+00 9.2246131100156475e+01 0.0000000000000000e+00 0.0000000000000000e+00 0 0 0
336 1 1 0.0000000000000000e+00 9.3207028299116544e+01 0.0000000000000000e+00 0.0000000000000000e+00 0 0 0
337 1 1 0.0000000000000000e+00 9.4167925498076599e+01 0.0000000000000000e+00 0.0000000000000000e+00 0 0 0
338 1 1 0.0000000000000000e+00 9.5128822697036654e+01 0.0000000000000000e+00 0.0000000000000000e+00 0 0 0
339 1 1 0.0000000000000000e+00 9.6089719895996723e+01 0.0000000000000000e+00 0.0000000000000000e+00 0 0 0
340 1 1 0.0000000000000000e+00 9.7050617094956792e+01 0.0000000000000000e+00 0.0000000000000000e+00 0 0 0
341 1 1 0.0000000000000000e+00 9.8011514293916875e+01 0.0000000000000000e+00 0.0000000000000000e+00 0 0 0
342 1 1 0.0000000000000000e+00 9.8972411492876944e+01 0.0000000000000000e+00 0.0000000000000000e+00 0 0 0
343 1 1 0.0000000000000000e+00 9.9933308691837027e+01 0.0000000000000000e+00 0.0000000000000000e+00 0 0 0
344 1 1 0.0000000000000000e+00 1.0089420589079710e+02 0.0000000000000000e+00 0.0000000000000000e+00 0 0 0
345 1 1 0.0000000000000000e+00 1.0185510308975718e+02 0.0000000000000000e+00 0.0000000000000000e+00 0 0 0
346 1 1 0.0000000000000000e+00 1.0281600028871725e+02 0.0000000000000000e+00 0.0000000000000000e+00 0 0 0
347 1 1 0.0000000000000000e+00 1.0377689748767733e+02 0.0000000000000000e+00 0.0000000000000000e+00 0 0 0
348 1 1 0.0000000000000000e+00 1.0473779468663740e+02 0.0000000000000000e+00 0.0000000000000000e+00 0 0 0
349 1 1 0.0000000000000000e+00 1.0569869188559748e+02 0.0000000000000000e+00 0.0000000000000000e+00 0 0 0
350 1 1 0.0000000000000000e+00 1.0665958908455755e+02 0.0000000000000000e+00 0.0000000000000000e+00 0 0 0
351 1 1 0.0000000000000000e+00 1.0762048628351764e+02 0.0000000000000000e+00 0.0000000000000000e+00 0 0 0
352 1 1 0.0000000000000000e+00 1.0858138348247770e+02 0.0000000000000000e+00 0.0000000000000000e+00 0 0 0
353 1 1 0.0000000000000000e+00 1.0954228068143779e+02 0.0000000000000000e+00 0.0000000000000000e+00 0 0 0
354 1 1 0.0000000000000000e+00 1.1050317788039786e+02 0.0000000000000000e+00 0.0000000000000000e+00 0 0 0
355 1 1 0.0000000000000000e+00 1.1146407507935794e+02 0.0000000000000000e+00 0.0000000000000000e+00 0 0 0
356 1 1 0.0000000000000000e+00 1.1242497227831801e+02 0.0000000000000000e+00 0.0000000000000000e+00 0 0 0
357 1 1 0.0000000000000000e+00 1.1338586947727809e+02 0.0000000000000000e+00 0.0000000000000000e+00 0 0 0
358 1 1 0.0000000000000000e+00 1.1434676667623816e+02 0.0000000000000000e+00 0.0000000000000000e+00 0 0 0
359 1 1 0.0000000000000000e+00 1.1530766387519823e+02 0.0000000000000000e+00 0.0000000000000000e+00 0 0 0
360 1 1 0.0000000000000000e+00 1.1626856107415830e+02 0.0000000000000000e+00 0.0000000000000000e+00 0 0 0
361 1 1 0.0000000000000000e+00 1.1722945827311835e+02 0.0000000000000000e+00 0.0000000000000000e+00 0 0 0
362 1 1 0.0000000000000000e+00 1.1819035547207842e+02 0.0000000000000000e+00 0.0000000000000000e+00 0 0 0
363 1 1 0.0000000000000000e+00 1.1915125267103849e+02 0.0000000000000000e+00 0.0000000000000000e+00 0 0 0
364 1 1 0.0000000000000000e+00 1.2011214986999855e+02 0.0000000000000000e+00 0.0000000000000000e+00 0 0 0
365 1 1 0.0000000000000000e+00 1.2107304706895860e+02 0.0000000000000000e+00 0.0000000000000000e+00 0 0 0
366 1 1 0.0000000000000000e+00 1.2203394426791866e+02 0.0000000000000000e+00 0.0000000000000000e+00 0 0 0
367 1 1 0.0000000000000000e+00 1.2299484146687871e+02 0.0000000000000000e+00 0.0000000000000000e+00 0 0 0
368 1 1 0.0000000000000000e+00 1.2395573866583877e+02 0.0000000000000000e+00 0.0000000000000000e+00 0 0 0
369 1 1 0.0000000000000000e+00 1.2491663586479882e+02 0.0000000000000000e+00 0.0000000000000000e+00 0 0 0
370 1 1 0.0000000000000000e+00 1.2587753306375888e+02 0.0000000000000000e+00 0.0000000000000000e+00 0 0 0
371 1 1 0.0000000000000000e+00 1.2683843026271893e+02 0.0000000000000000e+00 0.0000000000000000e+00 0 0 0
372 1 1 0.0000000000000000e+00 1.2779932746167898e+02 0.0000000000000000e+00 0.0000000000000000e+00 0 0 0
373 1 1 0.0000000000000000e+00 1.2876022466063904e+02 0.0000000000000000e+00 0.0000000000000000e+00 0 0 0
374 1 1 0.0000000000000000e+00 1.2972112185959909e+02 0.0000000000000000e+00 0.0000000000000000e+00 0 0 0
375 1 1 0.0000000000000000e+00 1.3068201905855915e+02 0.0000000000000000e+00 0.0000000000000000e+00 0 0 0
376 1 1 0.0000000000000000e+00 1.3164291625751918e+02 0.0000000000000000e+00 0.0000000000000000e+00 0 0 0
377 1 1 0.0000000000000000e+00 1.3260381345647923e+02 0.0000000000000000e+00 0.0000000000000000e+00 0 0 0
378 1 1 0.0000000000000000e+00 1.3356471065543926e+02 0.0000000000000000e+00 0.0000000000000000e+00 0 0 0
379 1 1 0.0000000000000000e+00 1.3452560785439931e+02 0.0000000000000000e+00 0.0000000000000000e+00 0 0 0
380 1 1 0.0000000000000000e+00 1.3548650505335934e+02 0.0000000000000000e+00 0.0000000000000000e+00 0 0 0
381 1 1 0.0000000000000000e+00 1.3644740225231939e+02 0.0000000000000000e+00 0.0000000000000000e+00 0 0 0
382 1 1 0.0000000000000000e+00 1.3740829945127942e+02 0.0000000000000000e+00 0.0000000000000000e+00 0 0 0
383 1 1 0.0000000000000000e+00 1.3836919665023945e+02 0.0000000000000000e+00 0.0000000000000000e+00 0 0 0
384 1 1 0.0000000000000000e+00 1.3933009384919947e+02 0.0000000000000000e+00 0.0000000000000000e+00 0 0 0
385 1 1 0.0000000000000000e+00 1.4029099104815950e+02 0.0000000000000000e+00 0.0000000000000000e+00 0 0 0
386 1 1 0.0000000000000000e+00 1.4125188824711950e+02 0.0000000000000000e+00 0.0000000000000000e+00 0 0 0
387 1 1 0.0000000000000000e+00 1.4221278544607952e+02 0.0000000000000000e+00 0.0000000000000000e+00 0 0 0
388 1 1 0.0000000000000000e+00 1.4317368264503955e+02 0.0000000000000000e+00 0.0000000000000000e+00 0 0 0
389 1 1 0.0000000000000000e+00 1.4413457984399957e+02 0.0000000000000000e+00 0.0000000000000000e+00 0 0 0
390 1 1 0.0000000000000000e+00 1.4509547704295957e+02 0.0000000000000000e+00 0.0000000000000000e+00 0 0 0
391 1 1 0.0000000000000000e+00 1.4605637424191957e+02 0.0000000000000000e+00 0.0000000000000000e+00 0 0 0
392 1 1 0.0000000000000000e+00 1.4701727144087960e+02 0.0000000000000000e+00 0.0000000000000000e+00 0 0 0
393 1 1 0.0000000000000000e+00 1.4797816863983959e+02 0.0000000000000000e+00 0.0000000000000000e+00 0 0 0
394 1 1 0.0000000000000000e+00 1.4893906583879959e+02 0.0000000000000000e+00 0.0000000000000000e+00 0 0 0
395 1 1 0.0000000000000000e+00 1.4989996303775959e+02 0.0000000000000000e+00 0.0000000000000000e+00 0 0 0
396 1 1 0.0000000000000000e+00 1.5086086023671959e+02 0.0000000000000000e+00 0.0000000000000000e+00 0 0 0
397 1 1 0.0000000000000000e+00 1.5182175743567959e+02 0.0000000000000000e+00 0.0000000000000000e+00 0 0 0
398 1 1 0.0000000000000000e+00 1.5278265463463956e+02 0.0000000000000000e+00 0.0000000000000000e+00 0 0 0
399 1 1 0.0000000000000000e+00 1.5374355183359955e+02 0.0000000000000000e+00 0.0000000000000000e+00 0 0 0
400 1 1 0.0000000000000000e+00 1.5470444903255952e+02 0.0000000000000000e+00 0.0000000000000000e+00 0 0 0
401 1 1 0.0000000000000000e+00 1.5566534623151949e+02 0.0000000000000000e+00 0.0000000000000000e+00 0 0 0
402 1 1 0.0000000000000000e+00 1.5662624343047946e+02 0.0000000000000000e+00 0.0000000000000000e+00 0 0 0
403 1 1 0.0000000000000000e+00 1.5758714062943940e+02 0.0000000000000000e+00 0.0000000000000000e+00 0 0 0
404 1 1 0.0000000000000000e+00 1.5854803782839937e+02 0.0000000000000000e+00 0.0000000000000000e+00 0 0 0
405 1 1 0.0000000000000000e+00 1.5950893502735931e+02 0.0000000000000000e+00 0.0000000000000000e+00 0 0 0
406 1 1 0.0000000000000000e+00 1.6046983222631928e+02 0.0000000000000000e+00 0.0000000000000000e+00 0 0 0
407 1 1 0.0000000000000000e+00 1.6143072942527922e+02 0.0000000000000000e+00 0.0000000000000000e+00 0 0 0
408 1 1 0.0000000000000000e+00 1.6239162662423917e+02 0.0000000000000000e+00 0.0000000000000000e+00 0 0 0
409 1 1 0.0000000000000000e+00 1.6335252382319911e+02 0.0000000000000000e+00 0.0000000000000000e+00 0 0 0
410 1 1 0.0000000000000000e+00 1.6431342102215905e+02 0.0000000000000000e+00 0.0000000000000000e+00 0 0 0
411 1 1 0.0000000000000000e+00 1.6527431822111899e+02 0.0000000000000000e+00 0.0000000000000000e+00 0 0 0
412 1 1 0.0000000000000000e+00 1.6623521542007890e+02 0.0000000000000000e+00 0.0000000000000000e+00 0 0 0
413 1 1 0.0000000000000000e+00 1.6719611261903884e+02 0.0000000000000000e+00 0.0000000000000000e+00 0 0 0
414 1 1 0.0000000000000000e+00 1.6815700981799876e+02 0.0000000000000000e+00 0.0000000000000000e+00 0 0 0
415 1 1 0.0000000000000000e+00 1.6911790701695864e+02 0.0000000000000000e+00 0.0000000000000000e+00 0 0 0
416 1 1 0.0000000000000000e+00 1.7007880421591852e+02 0.0000000000000000e+00 0.0000000000000000e+00 0 0 0
417 1 1 0.0000000000000000e+00 1.7103970141487841e+02 0.0000000000000000e+00 0.0000000000000000e+00 0 0 0
418 1 1 0.0000000000000000e+00 1.7200059861383826e+02 0.0000000000000000e+00 0.0000000000000000e+00 0 0 0
419 1 1 0.0000000000000000e+00 1.7296149581279815e+02 0.0000000000000000e+00 0.0000000000000000e+00 0 0 0
420 1 1 0.0000000000000000e+00 1.7392239301175800e+02 0.0000000000000000e+00 0.0000000000000000e+00 0 0 0
421 1 1 0.0000000000000000e+00 1.7488329021071789e+02 0.0000000000000000e+00 0.0000000000000000e+00 0 0 0
422 1 1 0.0000000000000000e+00 1.7584418740967774e+02 0.0000000000000000e+00 0.0000000000000000e+00 0 0 0
423 1 1 0.0000000000000000e+00 1.7680508460863760e+02 0.0000000000000000e+00 0.0000000000000000e+00 0 0 0
424 1 1 0.0000000000000000e+00 1.7776598180759746e+02 0.0000000000000000e+00 0.0000000000000000e+00 0 0 0
425 1 1 0.0000000000000000e+00 1.7872687900655728e+02 0.0000000000000000e+00 0.0000000000000000e+00 0 0 0
426 1 1 0.0000000000000000e+00 1.7968777620551708e+02 0.0000000000000000e+00 0.0000000000000000e+00 0 0 0
427 1 1 0.0000000000000000e+00 1.8064867340447691e+02 0.0000000000000000e+00 0.0000000000000000e+00 0 0 0
428 1 1 0.0000000000000000e+00 1.8160957060343671e+02 0.0000000000000000e+00 0.0000000000000000e+00 0 0 0
429 1 1 0.0000000000000000e+00 1.8257046780239651e+02 0.0000000000000000e+00 0.0000000000000000e+00 0 0 0
430 1 1 0.0000000000000000e+00 1.8353136500135628e+02 0.0000000000000000e+00 0.0000000000000000e+00 0 0 0
431 1 1 0.0000000000000000e+00 1.8449226220031608e+02 0.0000000000000000e+00 0.0000000000000000e+00 0 0 0
432 1 1 0.0000000000000000e+00 1.8545315939927585e+02 0.0000000000000000e+00 0.0000000000000000e+00 0 0 0
433 1 1 0.0000000000000000e+00 1.8641405659823562e+02 0.0000000000000000e+00 0.0000000000000000e+00 0 0 0
434 1 1 0.0000000000000000e+00 1.8737495379719536e+02 0.0000000000000000e+00 0.0000000000000000e+00 0 0 0
435 1 1 0.0000000000000000e+00 1.8833585099615510e+02 0.0000000000000000e+00 0.0000000000000000e+00 0 0 0
436 1 1 0.0000000000000000e+00 1.8929674819511484e+02 0.0000000000000000e+00 0.0000000000000000e+00 0 0 0
437 1 1 0.0000000000000000e+00 1.9025764539407459e+02 0.0000000000000000e+00 0.0000000000000000e+00 0 0 0
438 1 1 0.0000000000000000e+00 1.9121854259303430e+02 0.0000000000000000e+00 0.0000000000000000e+00 0 0 0
439 1 1 0.0000000000000000e+00 1.9217943979199399e+02 0.0000000000000000e+00 0.0000000000000000e+00 0 0 0
440 1 1 0.0000000000000000e+00 1.9314033699095370e+02 0.0000000000000000e+00 0.0000000000000000e+00 0 0 0
441 1 1 0.0000000000000000e+00 1.9410123418991338e+02 0.0000000000000000e+00 0.0000000000000000e+00 0 0 0
442 1 1 0.0000000000000000e+00 1.9506213138887307e+02 0.0000000000000000e+00 0.0000000000000000e+00 0 0 0
443 1 1 0.0000000000000000e+00 1.9602302858783273e+02 0.0000000000000000e+00 0.0000000000000000e+00 0 0 0
444 1 1 0.0000000000000000e+00 1.9698392578679238e+02 0.0000000000000000e+00 0.0000000000000000e+00 0 0 0
445 1 1 0.0000000000000000e+00 1.9794482298575201e+02 0.0000000000000000e+00 0.0000000000000000e+00 0 0 0
446 1 1 0.0000000000000000e+00 1.9890572018471164e+02 0.0000000000000000e+00 0.0000000000000000e+00 0 0 0
447 1 1 0.0000000000000000e+00 1.9986661738367124e+02 0.0000000000000000e+00 0.0000000000000000e+00 0 0 0
448 1 1 0.0000000000000000e+00 2.0082751458263087e+02 0.0000000000000000e+00 0.0000000000000000e+00 0 0 0
449 1 1 0.0000000000000000e+00 2.0178841178159047e+02 0.0000000000000000e+00 0.0000000000000000e+00 0 0 0
450 1 1 0.0000000000000000e+00 2.0274930898055004e+02 0.0000000000000000e+00 0.0000000000000000e+00 0 0 0
451 1 1 0.0000000000000000e+00 2.0371020617950964e+02 0.0000000000000000e+00 0.0000000000000000e+00 0 0 0
452 1 1 0.0000000000000000e+00 2.0467110337846921e+02 0.0000000000000000e+00 0.0000000000000000e+00 0 0 0
453 1 1 0.0000000000000000e+00 2.0563200057742876e+02 0.0000000000000000e+00 0.0000000000000000e+00 0 0 0
454 1 1 0.0000000000000000e+00 2.0659289777638830e+02 0.0000000000000000e+00 0.0000000000000000e+00 0 0 0
455 1 1 0.0000000000000000e+00 2.0755379497534784e+02 0.0000000000000000e+00 0.0000000000000000e+00 0 0 0
456 1 1 0.0000000000000000e+00 2.0851469217430736e+02 0.0000000000000000e+00 0.0000000000000000e+00 0 0 0
457 1 1 0.0000000000000000e+00 2.0947558937326687e+02 0.0000000000000000e+00 0.0000000000000000e+00 0 0 0
458 1 1 0.0000000000000000e+00 2.1043648657222636e+02 0.0000000000000000e+00 0.0000000000000000e+00 0 0 0
459 1 1 0.0000000000000000e+00 2.1139738377118584e+02 0.0000000000000000e+00 0.0000000000000000e+00 0 0 0
460 1 1 0.0000000000000000e+00 2.1235828097014533e+02 0.0000000000000000e+00 0.0000000000000000e+00 0 0 0
461 1 1 0.0000000000000000e+00 2.1331917816910479e+02 0.0000000000000000e+00 0.0000000000000000e+00 0 0 0
462 1 1 0.0000000000000000e+00 2.1428007536806425e+02 0.0000000000000000e+00 0.0000000000000000e+00 0 0 0
463 1 1 0.0000000000000000e+00 2.1524097256702370e+02 0.0000000000000000e+00 0.0000000000000000e+00 0 0 0
464 1 1 0.0000000000000000e+00 2.1620186976598313e+02 0.0000000000000000e+00 0.0000000000000000e+00 0 0 0
465 1 1 0.0000000000000000e+00 2.1716276696494253e+02 0.0000000000000000e+00 0.0000000000000000e+00 0 0 0
466 1 1 0.0000000000000000e+00 2.1812366416390194e+02 0.0000000000000000e+00 0.0000000000000000e+00 0 0 0
467 1 1 0.0000000000000000e+00 2.1908456136286134e+02 0.0000000000000000e+00 0.0000000000000000e+00 0 0 0
468 1 1 0.0000000000000000e+00 2.2004545856182071e+02 0.0000000000000000e+00 0.0000000000000000e+00 0 0 0
469 1 1 0.0000000000000000e+00 2.2100635576078008e+02 0.0000000000000000e+00 0.0000000000000000e+00 0 0 0
470 1 1 0.0000000000000000e+00 2.2196725295973943e+02 0.0000000000000000e+00 0.0000000000000000e+00 0 0 0
471 1 1 0.0000000000000000e+00 2.2292815015869877e+02 0.0000000000000000e+00 0.0000000000000000e+00 0 0 0
472 1 1 0.0000000000000000e+00 2.2388904735765809e+02 0.0000000000000000e+00 0.0000000000000000e+00 0 0 0
473 1 1 0.0000000000000000e+00 2.2484994455661740e+02 0.0000000000000000e+00 0.0000000000000000e+00 0 0 0
474 1 1 0.0000000000000000e+00 2.2581084175557672e+02 0.0000000000000000e+00 0.0000000000000000e+00 0 0 0
475 1 1 0.0000000000000000e+00 2.2677173895453600e+02 0.0000000000000000e+00 0.0000000000000000e+00 0 0 0
476 1 1 0.0000000000000000e+00 2.2773263615349529e+02 0.0000000000000000e+00 0.0000000000000000e+00 0 0 0
477 1 1 0.0000000000000000e+00 2.2869353335245458e+02 0.0000000000000000e+00 0.0000000000000000e+00 0 0 0

Velocities

1 0.0000000000000000e+00 0.0000000000000000e+00 0.0000000000000000e+00
2 0.0000000000000000e+00 0.0000000000000000e+00 0.0000000000000000e+00
3 0.0000000000000000e+00 0.0000000000000000e+00 0.0000000000000000e+00
4 0.0000000000000000e+00 0.0000000000000000e+00 0.0000000000000000e+00
5 0.0000000000000000e+00 0.0000000000000000e+00 0.0000000000000000e+00
6 0.0000000000000000e+00 0.0000000000000000e+00 0.0000000000000000e+00
7 0.0000000000000000e+00 0.0000000000000000e+00 0.0000000000000000e+00
8 0.0000000000000000e+00 0.0000000000000000e+00 0.0000000000000000e+00
9 0.0000000000000000e+00 0.0000000000000000e+00 0.0000000000000000e+00
10 0.0000000000000000e+00 0.0000000000000000e+00 0.0000000000000000e+00
11 0.0000000000000000e+00 0.0000000000000000e+00 0.0000000000000000e+00
12 0.0000000000000000e+00 0.0000000000000000e+00 0.0000000000000000e+00
13 0.0000000000000000e+00 0.0000000000000000e+00 0.0000000000000000e+00
14 0.0000000000000000e+00 0.0000000000000000e+00 0.0000000000000000e+00
15 0.0000000000000000e+00 0.0000000000000000e+00 0.0000000000000000e+00
16 0.0000000000000000e+00 0.0000000000000000e+00 0.0000000000000000e+00
17 0.0000000000000000e+00 0.0000000000000000e+00 0.0000000000000000e+00
18 0.0000000000000000e+00 0.0000000000000000e+00 0.0000000000000000e+00
19 0.0000000000000000e+00 0.0000000000000000e+00 0.0000000000000000e+00
20 0.0000000000000000e+00 0.0000000000000000e+00 0.0000000000000000e+00
21 0.0000000000000000e+00 0.0000000000000000e+00 0.0000000000000000e+00
22 0.0000000000000000e+00 0.0000000000000000e+00 0.0000000000000000e+00
23 0.0000000000000000e+00 0.0000000000000000e+00 0.0000000000000000e+00
24 0.0000000000000000e+00 0.0000000000000000e+00 0.0000000000000000e+00
25 0.0000000000000000e+00 0.0000000000000000e+00 0.0000000000000000e+00
26 0.0000000000000000e+00 0.0000000000000000e+00 0.0000000000000000e+00
27 0.0000000000000000e+00 0.0000000000000000e+00 0.0000000000000000e+00
28 0.0000000000000000e+00 0.0000000000000000e+00 0.0000000000000000e+00
29 0.0000000000000000e+00 0.0000000000000000e+00 0.0000000000000000e+00
30 0.0000000000000000e+00 0.0000000000000000e+00 0.0000000000000000e+00
31 0.0000000000000000e+00 0.0000000000000000e+00 0.0000000000000000e+00
32 0.0000000000000000e+00 0.0000000000000000e+00 0.0000000000000000e+00
33 0.0000000000000000e+00 0.0000000000000000e+00 0.0000000000000000e+00
34 0.0000000000000000e+00 0.0000000000000000e+00 0.0000000000000000e+00
35 0.0000000000000000e+00 0.0000000000000000e+00 0.0000000000000000e+00
36 0.0000000000000000e+00 0.0000000000000000e+00 0.0000000000000000e+00
37 0.0000000000000000e+00 0.0000000000000000e+00 0.0000000000000000e+00
38 0.0000000000000000e+00 0.0000000000000000e+00 0.0000000000000000e+00
39 0.0000000000000000e+00 0.0000000000000000e+00 0.0000000000000000e+00
40 0.0000000000000000e+00 0.0000000000000000e+00 0.0000000000000000e+00
41 0.0000000000000000e+00 0.0000000000000000e+00 0.0000000000000000e+00
42 0.0000000000000000e+00 0.0000000000000000e+00 0.0000000000000000e+00
43 0.0000000000000000e+00 0.0000000000000000e+00 0.0000000000000000e+00
44 0.0000000000000000e+00 0.0000000000000000e+00 0.0000000000000000e+00
45 0.0000000000000000e+00 0.0000000000000000e+00 0.0000000000000000e+00
46 0.0000000000000000e+00 0.0000000000000000e+00 0.0000000000000000e+00
47 0.0000000000000000e+00 0.0000000000000000e+00 0.0000000000000000e+00
48 0.0000000000000000e+00 0.0000000000000000e+00 0.0000000000000000e+00
49 0.0000000000000000e+00 0.0000000000000000e+00 0.0000000000000000e+00
50 0.0000000000000000e+00 0.0000000000000000e+00 0.0000000000000000e+00
51 0.0000000000000000e+00 0.0000000000000000e+00 0.0000000000000000e+00
52 0.0000000000000000e+00 0.0000000000000000e+00 0.0000000000000000e+00
53 0.0000000000000000e+00 0.0000000000000000e+00 0.0000000000000000e+00
54 0.0000000000000000e+00 0.0000000000000000e+00 0.0000000000000000e+00
55 0.0000000000000000e+00 0.0000000000000000e+00 0.0000000000000000e+00
56 0.0000000000000000e+00 0.0000000000000000e+00 0.0000000000000000e+00
57 0.0000000000000000e+00 0.0000000000000000e+00 0.0000000000000000e+00
58 0.0000000000000000e+00 0.0000000000000000e+00 0.0000000000000000e+00
59 0.0000000000000000e+00 0.0000000000000000e+00 0.0000000000000000e+00
60 0.0000000000000000e+00 0.0000000000000000e+00 0.0000000000000000e+00
61 0.0000000000000000e+00 0.0000000000000000e+00 0.0000000000000000e+00
62 0.0000000000000000e+00 0.0000000000000000e+00 0.0000000000000000e+00
63 0.0000000000000000e+00 0.0000000000000000e+00 0.0000000000000000e+00
64 0.0000000000000000e+00 0.0000000000000000e+00 0.0000000000000000e+00
65 0.0000000000000000e+00 0.0000000000000000e+00 0.0000000000000000e+00
66 0.0000000000000000e+00 0.0000000000000000e+00 0.0000000000000000e+00
67 0.0000000000000000e+00 0.0000000000000000e+00 0.0000000000000000e+00
68 0.0000000000000000e+00 0.0000000000000000e+00 0.0000000000000000e+00
69 0.0000000000000000e+00 0.0000000000000000e+00 0.0000000000000000e+00
70 0.0000000000000000e+00 0.0000000000000000e+00 0.0000000000000000e+00
71 0.0000000000000000e+00 0.0000000000000000e+00 0.0000000000000000e+00
72 0.0000000000000000e+00 0.0000000000000000e+00 0.0000000000000000e+00
73 0.0000000000000000e+00 0.0000000000000000e+00 0.0000000000000000e+00
74 0.0000000000000000e+00 0.0000000000000000e+00 0.0000000000000000e+00
75 0.0000000000000000e+00 0.0000000000000000e+00 0.0000000000000000e+00
76 0.0000000000000000e+00 0.0000000000000000e+00 0.0000000000000000e+00
77 0.0000000000000000e+00 0.0000000000000000e+00 0.0000000000000000e+00
78 0.0000000000000000e+00 0.0000000000000000e+00 0.0000000000000000e+00
79 0.0000000000000000e+00 0.0000000000000000e+00 0.0000000000000000e+00
80 0.0000000000000000e+00 0.0000000000000000e+00 0.0000000000000000e+00
81 0.0000000000000000e+00 0.0000000000000000e+00 0.0000000000000000e+00
82 0.0000000000000000e+00 0.0000000000000000e+00 0.0000000000000000e+00
83 0.0000000000000000e+00 0.0000000000000000e+00 0.0000000000000000e+00
84 0.0000000000000000e+00 0.0000000000000000e+00 0.0000000000000000e+00
85 0.0000000000000000e+00 0.0000000000000000e+00 0.0000000000000000e+00
86 0.0000000000000000e+00 0.0000000000000000e+00 0.0000000000000000e+00
87 0.0000000000000000e+00 0.0000000000000000e+00 0.0000000000000000e+00
88 0.0000000000000000e+00 0.0000000000000000e+00 0.0000000000000000e+00
89 0.0000000000000000e+00 0.0000000000000000e+00 0.0000000000000000e+00
90 0.0000000000000000e+00 0.0000000000000000e+00 0.0000000000000000e+00
91 0.0000000000000000e+00 0.0000000000000000e+00 0.0000000000000000e+00
92 0.0000000000000000e+00 0.0000000000000000e+00 0.0000000000000000e+00
93 0.0000000000000000e+00 0.0000000000000000e+00 0.0000000000000000e+00
94 0.0000000000000000e+00 0.0000000000000000e+00 0.0000000000000000e+00
95 0.0000000000000000e+00 0.0000000000000000e+00 0.0000000000000000e+00
96 0.0000000000000000e+00 0.0000000000000000e+00 0.0000000000000000e+00
97 0.0000000000000000e+00 0.0000000000000000e+00 0.0000000000000000e+00
98 0.0000000000000000e+00 0.0000000000000000e+00 0.0000000000000000e+00
99 0.0000000000000000e+00 0.0000000000000000e+00 0.0000000000000000e+00
100 0.0000000000000000e+00 0.0000000000000000e+00 0.0000000000000000e+00
101 0.0000000000000000e+00 0.0000000000000000e+00 0.0000000000000000e+00
102 0.0000000000000000e+00 0.0000000000000000e+00 0.0000000000000000e+00
103 0.0000000000000000e+00 0.0000000000000000e+00 0.0000000000000000e+00
104 0.0000000000000000e+00 0.0000000000000000e+00 0.0000000000000000e+00
105 0.0000000000000000e+00 0.0000000000000000e+00 0.0000000000000000e+00
106 0.0000000000000000e+00 0.0000000000000000e+00 0.0000000000000000e+00
107 0.0000000000000000e+00 0.0000000000000000e+00 0.0000000000000000e+00
108 0.0000000000000000e+00 0.0000000000000000e+00 0.0000000000000000e+00
109 0.0000000000000000e+00 0.0000000000000000e+00 0.0000000000000000e+00
110 0.0000000000000000e+00 0.0000000000000000e+00 0.0000000000000000e+00
111 0.0000000000000000e+00 0.0000000000000000e+00 0.0000000000000000e+00
112 0.0000000000000000e+00 0.0000000000000000e+00 0.0000000000000000e+00
113 0.0000000000000000e+00 0.0000000000000000e+00 0.0000000000000000e+00
114 0.0000000000000000e+00 0.0000000000000000e+00 0.0000000000000000e+00
115 0.0000000000000000e+00 0.0000000000000000e+00 0.0000000000000000e+00
116 0.0000000000000000e+00 0.0000000000000000e+00 0.0000000000000000e+00
117 0.0000000000000000e+00 0.0000000000000000e+00 0.0000000000000000e+00
118 0.0000000000000000e+00 0.0000000000000000e+00 0.0000000000000000e+00
119 0.0000000000000000e+00 0.0000000000000000e+00 0.0000000000000000e+00
120 0.0000000000000000e+00 0.0000000000000000e+00 0.0000000000000000e+00
121 0.0000000000000000e+00 0.0000000000000000e+00 0.0000000000000000e+00
122 0.0000000000000000e+00 0.0000000000000000e+00 0.0000000000000000e+00
123 0.0000000000000000e+00 0.0000000000000000e+00 0.0000000000000000e+00
124 0.0000000000000000e+00 0.0000000000000000e+00 0.0000000000000000e+00
125 0.0000000000000000e+00 0.0000000000000000e+00 0.0000000000000000e+00
126 0.0000000000000000e+00 0.0000000000000000e+00 0.0000000000000000e+00
127 0.0000000000000000e+00 0.0000000000000000e+00 0.0000000000000000e+00
128 0.0000000000000000e+00 0.0000000000000000e+00 0.0000000000000000e+00
129 0.0000000000000000e+00 0.0000000000000000e+00 0.0000000000000000e+00
130 0.0000000000000000e+00 0.0000000000000000e+00 0.0000000000000000e+00
131 0.0000000000000000e+00 0.0000000000000000e+00 0.0000000000000000e+00
132 0.0000000000000000e+00 0.0000000000000000e+00 0.0000000000000000e+00
133 0.0000000000000000e+00 0.0000000000000000e+00 0.0000000000000000e+00
134 0.0000000000000000e+00 0.0000000000000000e+00 0.0000000000000000e+00
135 0.0000000000000000e+00 0.0000000000000000e+00 0.0000000000000000e+00
136 0.0000000000000000e+00 0.0000000000000000e+00 0.0000000000000000e+00
137 0.0000000000000000e+00 0.0000000000000000e+00 0.0000000000000000e+00
138 0.0000000000000000e+00 0.0000000000000000e+00 0.0000000000000000e+00
139 0.0000000000000000e+00 0.0000000000000000e+00 0.0000000000000000e+00
140 0.0000000000000000e+00 0.0000000000000000e+00 0.0000000000000000e+00
141 0.0000000000000000e+00 0.0000000000000000e+00 0.0000000000000000e+00
142 0.0000000000000000e+00 0.0000000000000000e+00 0.0000000000000000e+00
143 0.0000000000000000e+00 0.0000000000000000e+00 0.0000000000000000e+00
144 0.0000000000000000e+00 0.0000000000000000e+00 0.0000000000000000e+00
145 0.0000000000000000e+00 0.0000000000000000e+00 0.0000000000000000e+00
146 0.0000000000000000e+00 0.0000000000000000e+00 0.0000000000000000e+00
147 0.0000000000000000e+00 0.0000000000000000e+00 0.0000000000000000e+00
148 0.0000000000000000e+00 0.0000000000000000e+00 0.0000000000000000e+00
149 0.0000000000000000e+00 0.0000000000000000e+00 0.0000000000000000e+00
150 0.0000000000000000e+00 0.0000000000000000e+00 0.0000000000000000e+00
151 0.0000000000000000e+00 0.0000000000000000e+00 0.0000000000000000e+00
152 0.0000000000000000e+00 0.0000000000000000e+00 0.0000000000000000e+00
153 0.0000000000000000e+00 0.0000000000000000e+00 0.0000000000000000e+00
154 0.0000000000000000e+00 0.0000000000000000e+00 0.0000000000000000e+00
155 0.0000000000000000e+00 0.0000000000000000e+00 0.0000000000000000e+00
156 0.0000000000000000e+00 0.0000000000000000e+00 0.0000000000000000e+00
157 0.0000000000000000e+00 0.0000000000000000e+00 0.0000000000000000e+00
158 0.0000000000000000e+00 0.0000000000000000e+00 0.0000000000000000e+00
159 0.0000000000000000e+00 0.0000000000000000e+00 0.0000000000000000e+00
160 0.0000000000000000e+00 0.0000000000000000e+00 0.0000000000000000e+00
161 0.0000000000000000e+00 0.0000000000000000e+00 0.0000000000000000e+00
162 0.0000000000000000e+00 0.0000000000000000e+00 0.0000000000000000e+00
163 0.0000000000000000e+00 0.0000000000000000e+00 0.0000000000000000e+00
164 0.0000000000000000e+00 0.0000000000000000e+00 0.0000000000000000e+00
165 0.0000000000000000e+00 0.0000000000000000e+00 0.0000000000000000e+00
166 0.0000000000000000e+00 0.0000000000000000e+00 0.0000000000000000e+00
167 0.0000000000000000e+00 0.0000000000000000e+00 0.0000000000000000e+00
168 0.0000000000000000e+00 0.0000000000000000e+00 0.0000000000000000e+00
169 0.0000000000000000e+00 0.0000000000000000e+00 0.0000000000000000e+00
170 0.0000000000000000e+00 0.0000000000000000e+00 0.0000000000000000e+00
171 0.0000000000000000e+00 0.0000000000000000e+00 0.0000000000000000e+00
172 0.0000000000000000e+00 0.0000000000000000e+00 0.0000000000000000e+00
173 0.0000000000000000e+00 0.0000000000000000e+00 0.0000000000000000e+00
174 0.0000000000000000e+00 0.0000000000000000e+00 0.0000000000000000e+00
175 0.0000000000000000e+00 0.0000000000000000e+00 0.0000000000000000e+00
176 0.0000000000000000e+00 0.0000000000000000e+00 0.0000000000000000e+00
177 0.0000000000000000e+00 0.0000000000000000e+00 0.0000000000000000e+00
178 0.0000000000000000e+00 0.0000000000000000e+00 0.0000000000000000e+00
179 0.0000000000000000e+00 0.0000000000000000e+00 0.0000000000000000e+00
180 0.0000000000000000e+00 0.0000000000000000e+00 0.0000000000000000e+00
181 0.0000000000000000e+00 0.0000000000000000e+00 0.0000000000000000e+00
182 0.0000000000000000e+00 0.0000000000000000e+00 0.0000000000000000e+00
183 0.0000000000000000e+00 0.0000000000000000e+00 0.0000000000000000e+00
184 0.0000000000000000e+00 0.0000000000000000e+00 0.0000000000000000e+00
185 0.0000000000000000e+00 0.0000000000000000e+00 0.0000000000000000e+00
186 0.0000000000000000e+00 0.0000000000000000e+00 0.0000000000000000e+00
187 0.0000000000000000e+00 0.0000000000000000e+00 0.0000000000000000e+00
188 0.0000000000000000e+00 0.0000000000000000e+00 0.0000000000000000e+00
189 0.0000000000000000e+00 0.0000000000000000e+00 0.0000000000000000e+00
190 0.0000000000000000e+00 0.0000000000000000e+00 0.0000000000000000e+00
191 0.0000000000000000e+00 0.0000000000000000e+00 0.0000000000000000e+00
192 0.0000000000000000e+00 0.0000000000000000e+00 0.0000000000000000e+00
193 0.0000000000000000e+00 0.0000000000000000e+00 0.0000000000000000e+00
194 0.0000000000000000e+00 0.0000000000000000e+00 0.0000000000000000e+00
195 0.0000000000000000e+00 0.0000000000000000e+00 0.0000000000000000e+00
196 0.0000000000000000e+00 0.0000000000000000e+00 0.0000000000000000e+00
197 0.0000000000000000e+00 0.0000000000000000e+00 0.0000000000000000e+00
198 0.0000000000000000e+00 0.0000000000000000e+00 0.0000000000000000e+00
199 0.0000000000000000e+00 0.0000000000000000e+00 0.0000000000000000e+00
200 0.0000000000000000e+00 0.0000000000000000e+00 0.0000000000000000e+00
201 0.0000000000000000e+00 0.0000000000000000e+00 0.0000000000000000e+00
202 0.0000000000000000e+00 0.0000000000000000e+00 0.0000000000000000e+00
203 0.0000000000000000e+00 0.0000000000000000e+00 0.0000000000000000e+00
204 0.0000000000000000e+00 0.0000000000000000e+00 0.0000000000000000e+00
205 0.0000000000000000e+00 0.0000000000000000e+00 0.0000000000000000e+00
206 0.0000000000000000e+00 0.0000000000000000e+00 0.0000000000000000e+00
207 0.0000000000000000e+00 0.0000000000000000e+00 0.0000000000000000e+00
208 0.0000000000000000e+00 0.0000000000000000e+00 0.0000000000000000e+00
209 0.0000000000000000e+00 0.0000000000000000e+00 0.0000000000000000e+00
210 0.0000000000000000e+00 0.0000000000000000e+00 0.0000000000000000e+00
211 0.0000000000000000e+00 0.0000000000000000e+00 0.0000000000000000e+00
212 0.0000000000000000e+00 0.0000000000000000e+00 0.0000000000000000e+00
213 0.0000000000000000e+00 0.0000000000000000e+00 0.0000000000000000e+00
214 0.0000000000000000e+00 0.0000000000000000e+00 0.0000000000000000e+00
215 0.0000000000000000e+00 0.0000000000000000e+00 0.0000000000000000e+00
216 0.0000000000000000e+00 0.0000000000000000e+00 0.0000000000000000e+00
217 0.0000000000000000e+00 0.0000000000000000e+00 0.0000000000000000e+00
218 0.0000000000000000e+00 0.0000000000000000e+00 0.0000000000000000e+00
219 0.0000000000000000e+00 0.0000000000000000e+00 0.0000000000000000e+00
220 0.0000000000000000e+00 0.0000000000000000e+00 0.0000000000000000e+00
221 0.0000000000000000e+00 0.0000000000000000e+00 0.0000000000000000e+00
222 0.0000000000000000e+00 0.0000000000000000e+00 0.0000000000000000e+00
223 0.0000000000000000e+00 0.0000000000000000e+00 0.0000000000000000e+00
224 0.0000000000000000e+00 0.0000000000000000e+00 0.0000000000000000e+00
225 0.0000000000000000e+00 0.0000000000000000e+00 0.0000000000000000e+00
226 0.0000000000000000e+00 0.0000000000000000e+00 0.0000000000000000e+00
227 0.0000000000000000e+00 0.0000000000000000e+00 0.0000000000000000e+00
228 0.0000000000000000e+00 0.0000000000000000e+00 0.0000000000000000e+00
229 0.0000000000000000e+00 0.0000000000000000e+00 0.0000000000000000e+00
230 0.0000000000000000e+00 0.0000000000000000e+00 0.0000000000000000e+00
231 0.0000000000000000e+00 0.0000000000000000e+00 0.0000000000000000e+00
232 0.0000000000000000e+00 0.0000000000000000e+00 0.0000000000000000e+00
233 0.0000000000000000e+00 0.0000000000000000e+00 0.0000000000000000e+00
234 0.0000000000000000e+00 0.0000000000000000e+00 0.0000000000000000e+00
235 0.0000000000000000e+00 0.0000000000000000e+00 0.0000000000000000e+00
236 0.0000000000000000e+00 0.0000000000000000e+00 0.0000000000000000e+00
237 0.0000000000000000e+00 0.0000000000000000e+00 0.0000000000000000e+00
238 0.0000000000000000e+00 0.0000000000000000e+00 0.0000000000000000e+00
239 0.0000000000000000e+00 0.0000000000000000e+00 0.0000000000000000e+00
240 0.0000000000000000e+00 0.0000000000000000e+00 0.0000000000000000e+00
241 0.0000000000000000e+00 0.0000000000000000e+00 0.0000000000000000e+00
242 0.0000000000000000e+00 0.0000000000000000e+00 0.0000000000000000e+00
243 0.0000000000000000e+00 0.0000000000000000e+00 0.0000000000000000e+00
244 0.0000000000000000e+00 0.0000000000000000e+00 0.0000000000000000e+00
245 0.0000000000000000e+00 0.0000000000000000e+00 0.0000000000000000e+00
246 0.0000000000000000e+00 0.0000000000000000e+00 0.0000000000000000e+00
247 0.0000000000000000e+00 0.0000000000000000e+00 0.0000000000000000e+00
248 0.0000000000000000e+00 0.0000000000000000e+00 0.0000000000000000e+00
249 0.0000000000000000e+00 0.0000000000000000e+00 0.0000000000000000e+00
250 0.0000000000000000e+00 0.0000000000000000e+00 0.0000000000000000e+00
251 0.0000000000000000e+00 0.0000000000000000e+00 0.0000000000000000e+00
252 0.0000000000000000e+00 0.0000000000000000e+00 0.0000000000000000e+00
253 0.0000000000000000e+00 0.0000000000000000e+00 0.0000000000000000e+00
254 0.0000000000000000e+00 0.0000000000000000e+00 0.0000000000000000e+00
255 0.0000000000000000e+00 0.0000000000000000e+00 0.0000000000000000e+00
256 0.0000000000000000e+00 0.0000000000000000e+00 0.0000000000000000e+00
257 0.0000000000000000e+00 0.0000000000000000e+00 0.0000000000000000e+00
258 0.0000000000000000e+00 0.0000000000000000e+00 0.0000000000000000e+00
259 0.0000000000000000e+00 0.0000000000000000e+00 0.0000000000000000e+00
260 0.0000000000000000e+00 0.0000000000000000e+00 0.0000000000000000e+00
261 0.0000000000000000e+00 0.0000000000000000e+00 0.0000000000000000e+00
262 0.0000000000000000e+00 0.0000000000000000e+00 0.0000000000000000e+00
263 0.0000000000000000e+00 0.0000000000000000e+00 0.0000000000000000e+00
264 0.0000000000000000e+00 0.0000000000000000e+00 0.0000000000000000e+00
265 0.0000000000000000e+00 0.0000000000000000e+00 0.0000000000000000e+00
266 0.0000000000000000e+00 0.0000000000000000e+00 0.0000000000000000e+00
267 0.0000000000000000e+00 0.0000000000000000e+00 0.0000000000000000e+00
268 0.0000000000000000e+00 0.0000000000000000e+00 0.0000000000000000e+00
269 0.0000000000000000e+00 0.0000000000000000e+00 0.0000000000000000e+00
270 0.0000000000000000e+00 0.0000000000000000e+00 0.0000000000000000e+00
271 0.0000000000000000e+00 0.0000000000000000e+00 0.0000000000000000e+00
272 0.0000000000000000e+00 0.0000000000000000e+00 0.0000000000000000e+00
273 0.0000000000000000e+00 0.0000000000000000e+00 0.0000000000000000e+00
274 0.0000000000000000e+00 0.0000000000000000e+00 0.0000000000000000e+00
275 0.0000000000000000e+00 0.0000000000000000e+00 0.0000000000000000e+00
276 0.0000000000000000e+00 0.0000000000000000e+00 0.0000000000000000e+00
277 0.0000000000000000e+00 0.0000000000000000e+00 0.0000000000000000e+00
278 0.0000000000000000e+00 0.0000000000000000e+00 0.0000000000000000e+00
279 0.0000000000000000e+00 0.0000000000000000e+00 0.0000000000000000e+00
280 0.0000000000000000e+00 0.0000000000000000e+00 0.0000000000000000e+00
281 0.0000000000000000e+00 0.0000000000000000e+00 0.0000000000000000e+00
282 0.0000000000000000e+00 0.0000000000000000e+00 0.0000000000000000e+00
283 0.0000000000000000e+00 0.0000000000000000e+00 0.0000000000000000e+00
284 0.0000000000000000e+00 0.0000000000000000e+00 0.0000000000000000e+00
285 0.0000000000000000e+00 0.0000000000000000e+00 0.0000000000000000e+00
286 0.0000000000000000e+00 0.0000000000000000e+00 0.0000000000000000e+00
287 0.0000000000000000e+00 0.0000000000000000e+00 0.0000000000000000e+00
288 0.0000000000000000e+00 0.0000000000000000e+00 0.0000000000000000e+00
289 0.0000000000000000e+00 0.0000000000000000e+00 0.0000000000000000e+00
290 0.0000000000000000e+00 0.0000000000000000e+00 0.0000000000000000e+00
291 0.0000000000000000e+00 0.0000000000000000e+00 0.0000000000000000e+00
292 0.0000000000000000e+00 0.0000000000000000e+00 0.0000000000000000e+00
293 0.0000000000000000e+00 0.0000000000000000e+00 0.0000000000000000e+00
294 0.0000000000000000e+00 0.0000000000000000e+00 0.0000000000000000e+00
295 0.0000000000000000e+00 0.0000000000000000e+00 0.0000000000000000e+00
296 0.0000000000000000e+00 0.0000000000000000e+00 0.0000000000000000e+00
297 0.0000000000000000e+00 0.0000000000000000e+00 0.0000000000000000e+00
298 0.0000000000000000e+00 0.0000000000000000e+00 0.0000000000000000e+00
299 0.0000000000000000e+00 0.0000000000000000e+00 0.0000000000000000e+00
300 0.0000000000000000e+00 0.0000000000000000e+00 0.0000000000000000e+00
301 0.0000000000000000e+00 0.0000000000000000e+00 0.0000000000000000e+00
302 0.0000000000000000e+00 0.0000000000000000e+00 0.0000000000000000e+00
303 0.0000000000000000e+00 0.0000000000000000e+00 0.0000000000000000e+00
304 0.0000000000000000e+00 0.0000000000000000e+00 0.0000000000000000e+00
305 0.0000000000000000e+00 0.0000000000000000e+00 0.0000000000000000e+00
306 0.0000000000000000e+00 0.0000000000000000e+00 0.0000000000000000e+00
307 0.0000000000000000e+00 0.0000000000000000e+00 0.0000000000000000e+00
308 0.0000000000000000e+00 0.0000000000000000e+00 0.0000000000000000e+00
309 0.0000000000000000e+00 0.0000000000000000e+00 0.0000000000000000e+00
310 0.0000000000000000e+00 0.0000000000000000e+00 0.0000000000000000e+00
311 0.0000000000000000e+00 0.0000000000000000e+00 0.0000000000000000e+00
312 0.0000000000000000e+00 0.0000000000000000e+00 0.0000000000000000e+00
313 0.0000000000000000e+00 0.0000000000000000e+00 0.0000000000000000e+00
314 0.0000000000000000e+00 0.0000000000000000e+00 0.0000000000000000e+00
315 0.0000000000000000e+00 0.0000000000000000e+00 0.0000000000000000e+00
316 0.0000000000000000e+00 0.0000000000000000e+00 0.0000000000000000e+00
317 0.0000000000000000e+00 0.0000000000000000e+00 0.0000000000000000e+00
318 0.0000000000000000e+00 0.0000000000000000e+00 0.0000000000000000e+00
319 0.0000000000000000e+00 0.0000000000000000e+00 0.0000000000000000e+00
320 0.0000000000000000e+00 0.0000000000000000e+00 0.0000000000000000e+00
321 0.0000000000000000e+00 0.0000000000000000e+00 0.0000000000000000e+00
322 0.0000000000000000e+00 0.0000000000000000e+00 0.0000000000000000e+00
323 0.0000000000000000e+00 0.0000000000000000e+00 0.0000000000000000e+00
324 0.0000000000000000e+00 0.0000000000000000e+00 0.0000000000000000e+00
325 0.0000000000000000e+00 0.0000000000000000e+00 0.0000000000000000e+00
326 0.0000000000000000e+00 0.0000000000000000e+00 0.0000000000000000e+00
327 0.0000000000000000e+00 0.0000000000000000e+00 0.0000000000000000e+00
328 0.0000000000000000e+00 0.0000000000000000e+00 0.0000000000000000e+00
329 0.0000000000000000e+00 0.0000000000000000e+00 0.0000000000000000e+00
330 0.0000000000000000e+00 0.0000000000000000e+00 0.0000000000000000e+00
331 0.0000000000000000e+00 0.0000000000000000e+00 0.0000000000000000e+00
332 0.0000000000000000e+00 0.0000000000000000e+00 0.0000000000000000e+00
333 0.0000000000000000e+00 0.0000000000000000e+00 0.0000000000000000e+00
334 0.0000000000000000e+00 0.0000000000000000e+00 0.0000000000000000e+00
335 0.0000000000000000e+00 0.0000000000000000e+00 0.0000000000000000e+00
336 0.0000000000000000e+00 0.0000000000000000e+00 0.0000000000000000e+00
337 0.0000000000000000e+00 0.0000000000000000e+00 0.0000000000000000e+00
338 0.0000000000000000e+00 0.0000000000000000e+00 0.0000000000000000e+00
339 0.0000000000000000e+00 0.0000000000000000e+00 0.0000000000000000e+00
340 0.0000000000000000e+00 0.0000000000000000e+00 0.0000000000000000e+00
341 0.0000000000000000e+00 0.0000000000000000e+00 0.0000000000000000e+00
342 0.0000000000000000e+00 0.0000000000000000e+00 0.0000000000000000e+00
343 0.0000000000000000e+00 0.0000000000000000e+00 0.0000000000000000e+00
344 0.0000000000000000e+00 0.0000000000000000e+00 0.0000000000000000e+00
345 0.0000000000000000e+00 0.0000000000000000e+00 0.0000000000000000e+00
346 0.0000000000000000e+00 0.0000000000000000e+00 0.0000000000000000e+00
347 0.0000000000000000e+00 0.0000000000000000e+00 0.0000000000000000e+00
348 0.0000000000000000e+00 0.0000000000000000e+00 0.0000000000000000e+00
349 0.0000000000000000e+00 0.0000000000000000e+00 0.0000000000000000e+00
350 0.0000000000000000e+00 0.0000000000000000e+00 0.0000000000000000e+00
351 0.0000000000000000e+00 0.0000000000000000e+00 0.0000000000000000e+00
352 0.0000000000000000e+00 0.0000000000000000e+00 0.0000000000000000e+00
353 0.0000000000000000e+00 0.0000000000000000e+00 0.0000000000000000e+00
354 0.0000000000000000e+00 0.0000000000000000e+00 0.0000000000000000e+00
355 0.0000000000000000e+00 0.0000000000000000e+00 0.0000000000000000e+00
356 0.0000000000000000e+00 0.0000000000000000e+00 0.0000000000000000e+00
357 0.0000000000000000e+00 0.0000000000000000e+00 0.0000000000000000e+00
358 0.0000000000000000e+00 0.0000000000000000e+00 0.0000000000000000e+00
359 0.0000000000000000e+00 0.0000000000000000e+00 0.0000000000000000e+00
360 0.0000000000000000e+00 0.0000000000000000e+00 0.0000000000000000e+00
361 0.0000000000000000e+00 0.0000000000000000e+00 0.0000000000000000e+00
362 0.0000000000000000e+00 0.0000000000000000e+00 0.0000000000000000e+00
363 0.0000000000000000e+00 0.0000000000000000e+00 0.0000000000000000e+00
364 0.0000000000000000e+00 0.0000000000000000e+00 0.0000000000000000e+00
365 0.0000000000000000e+00 0.0000000000000000e+00 0.0000000000000000e+00
366 0.0000000000000000e+00 0.0000000000000000e+00 0.0000000000000000e+00
367 0.0000000000000000e+00 0.0000000000000000e+00 0.0000000000000000e+00
368 0.0000000000000000e+00 0.0000000000000000e+00 0.0000000000000000e+00
369 0.0000000000000000e+00 0.0000000000000000e+00 0.0000000000000000e+00
370 0.0000000000000000e+00 0.0000000000000000e+00 0.0000000000000000e+00
371 0.0000000000000000e+00 0.0000000000000000e+00 0.0000000000000000e+00
372 0.0000000000000000e+00 0.0000000000000000e+00 0.0000000000000000e+00
373 0.0000000000000000e+00 0.0000000000000000e+00 0.0000000000000000e+00
374 0.0000000000000000e+00 0.0000000000000000e+00 0.0000000000000000e+00
375 0.0000000000000000e+00 0.0000000000000000e+00 0.0000000000000000e+00
376 0.0000000000000000e+00 0.0000000000000000e+00 0.0000000000000000e+00
377 0.0000000000000000e+00 0.0000000000000000e+00 0.0000000000000000e+00
378 0.0000000000000000e+00 0.0000000000000000e+00 0.0000000000000000e+00
379 0.0000000000000000e+00 0.0000000000000000e+00 0.0000000000000000e+00
380 0.0000000000000000e+00 0.0000000000000000e+00 0.0000000000000000e+00
381 0.0000000000000000e+00 0.0000000000000000e+00 0.0000000000000000e+00
382 0.0000000000000000e+00 0.0000000000000000e+00 0.0000000000000000e+00
383 0.0000000000000000e+00 0.0000000000000000e+00 0.0000000000000000e+00
384 0.0000000000000000e+00 0.0000000000000000e+00 0.0000000000000000e+00
385 0.0000000000000000e+00 0.0000000000000000e+00 0.0000000000000000e+00
386 0.0000000000000000e+00 0.0000000000000000e+00 0.0000000000000000e+00
387 0.0000000000000000e+00 0.0000000000000000e+00 0.0000000000000000e+00
388 0.0000000000000000e+00 0.0000000000000000e+00 0.0000000000000000e+00
389 0.0000000000000000e+00 0.0000000000000000e+00 0.0000000000000000e+00
390 0.0000000000000000e+00 0.0000000000000000e+00 0.0000000000000000e+00
391 0.0000000000000000e+00 0.0000000000000000e+00 0.0000000000000000e+00
392 0.0000000000000000e+00 0.0000000000000000e+00 0.0000000000000000e+00
393 0.0000000000000000e+00 0.0000000000000000e+00 0.0000000000000000e+00
394 0.0000000000000000e+00 0.0000000000000000e+00 0.0000000000000000e+00
395 0.0000000000000000e+00 0.0000000000000000e+00 0.0000000000000000e+00
396 0.0000000000000000e+00 0.0000000000000000e+00 0.0000000000000000e+00
397 0.0000000000000000e+00 0.0000000000000000e+00 0.0000000000000000e+00
398 0.0000000000000000e+00 0.0000000000000000e+00 0.0000000000000000e+00
399 0.0000000000000000e+00 0.0000000000000000e+00 0.0000000000000000e+00
400 0.0000000000000000e+00 0.0000000000000000e+00 0.0000000000000000e+00
401 0.0000000000000000e+00 0.0000000000000000e+00 0.0000000000000000e+00
402 0.0000000000000000e+00 0.0000000000000000e+00 0.0000000000000000e+00
403 0.0000000000000000e+00 0.0000000000000000e+00 0.0000000000000000e+00
404 0.0000000000000000e+00 0.0000000000000000e+00 0.0000000000000000e+00
405 0.0000000000000000e+00 0.0000000000000000e+00 0.0000000000000000e+00
406 0.0000000000000000e+00 0.0000000000000000e+00 0.0000000000000000e+00
407 0.0000000000000000e+00 0.0000000000000000e+00 0.0000000000000000e+00
408 0.0000000000000000e+00 0.0000000000000000e+00 0.0000000000000000e+00
409 0.0000000000000000e+00 0.0000000000000000e+00 0.0000000000000000e+00
410 0.0000000000000000e+00 0.0000000000000000e+00 0.0000000000000000e+00
411 0.0000000000000000e+00 0.0000000000000000e+00 0.0000000000000000e+00
412 0.0000000000000000e+00 0.0000000000000000e+00 0.0000000000000000e+00
413 0.0000000000000000e+00 0.0000000000000000e+00 0.0000000000000000e+00
414 0.0000000000000000e+00 0.0000000000000000e+00 0.0000000000000000e+00
415 0.0000000000000000e+00 0.0000000000000000e+00 0.0000000000000000e+00
416 0.0000000000000000e+00 0.0000000000000000e+00 0.0000000000000000e+00
417 0.0000000000000000e+00 0.0000000000000000e+00 0.0000000000000000e+00
418 0.0000000000000000e+00 0.0000000000000000e+00 0.0000000000000000e+00
419 0.0000000000000000e+00 0.0000000000000000e+00 0.0000000000000000e+00
420 0.0000000000000000e+00 0.0000000000000000e+00 0.0000000000000000e+00
421 0.0000000000000000e+00 0.0000000000000000e+00 0.0000000000000000e+00
422 0.0000000000000000e+00 0.0000000000000000e+00 0.0000000000000000e+00
423 0.0000000000000000e+00 0.0000000000000000e+00 0.0000000000000000e+00
424 0.0000000000000000e+00 0.0000000000000000e+00 0.0000000000000000e+00
425 0.0000000000000000e+00 0.0000000000000000e+00 0.0000000000000000e+00
426 0.0000000000000000e+00 0.0000000000000000e+00 0.0000000000000000e+00
427 0.0000000000000000e+00 0.0000000000000000e+00 0.0000000000000000e+00
428 0.0000000000000000e+00 0.0000000000000000e+00 0.0000000000000000e+00
429 0.0000000000000000e+00 0.0000000000000000e+00 0.0000000000000000e+00
430 0.0000000000000000e+00 0.0000000000000000e+00 0.0000000000000000e+00
431 0.0000000000000000e+00 0.0000000000000000e+00 0.0000000000000000e+00
432 0.0000000000000000e+00 0.0000000000000000e+00 0.0000000000000000e+00
433 0.0000000000000000e+00 0.0000000000000000e+00 0.0000000000000000e+00
434 0.0000000000000000e+00 0.0000000000000000e+00 0.0000000000000000e+00
435 0.0000000000000000e+00 0.0000000000000000e+00 0.0000000000000000e+00
436 0.0000000000000000e+00 0.0000000000000000e+00 0.0000000000000000e+00
437 0.0000000000000000e+00 0.0000000000000000e+00 0.0000000000000000e+00
438 0.0000000000000000e+00 0.0000000000000000e+00 0.0000000000000000e+00
439 0.0000000000000000e+00 0.0000000000000000e+00 0.0000000000000000e+00
440 0.0000000000000000e+00 0.0000000000000000e+00 0.0000000000000000e+00
441 0.0000000000000000e+00 0.0000000000000000e+00 0.0000000000000000e+00
442 0.0000000000000000e+00 0.0000000000000000e+00 0.0000000000000000e+00
443 0.0000000000000000e+00 0.0000000000000000e+00 0.0000000000000000e+00
444 0.0000000000000000e+00 0.0000000000000000e+00 0.0000000000000000e+00
445 0.0000000000000000e+00 0.0000000000000000e+00 0.0000000000000000e+00
446 0.0000000000000000e+00 0.0000000000000000e+00 0.0000000000000000e+00
447 0.0000000000000000e+00 0.0000000000000000e+00 0.0000000000000000e+00
448 0.0000000000000000e+00 0.0000000000000000e+00 0.0000000000000000e+00
449 0.0000000000000000e+00 0.0000000000000000e+00 0.0000000000000000e+00
450 0.0000000000000000e+00 0.0000000000000000e+00 0.0000000000000000e+00
451 0.0000000000000000e+00 0.0000000000000000e+00 0.0000000000000000e+00
452 0.0000000000000000e+00 0.0000000000000000e+00 0.0000000000000000e+00
453 0.0000000000000000e+00 0.0000000000000000e+00 0.0000000000000000e+00
454 0.0000000000000000e+00 0.0000000000000000e+00 0.0000000000000000e+00
455 0.0000000000000000e+00 0.0000000000000000e+00 0.0000000000000000e+00
456 0.0000000000000000e+00 0.0000000000000000e+00 0.0000000000000000e+00
457 0.0000000000000000e+00 0.0000000000000000e+00 0.0000000000000000e+00
458 0.0000000000000000e+00 0.0000000000000000e+00 0.0000000000000000e+00
459 0.0000000000000000e+00 0.0000000000000000e+00 0.0000000000000000e+00
460 0.0000000000000000e+00 0.0000000000000000e+00 0.0000000000000000e+00
461 0.0000000000000000e+00 0.0000000000000000e+00 0.0000000000000000e+00
462 0.0000000000000000e+00 0.0000000000000000e+00 0.0000000000000000e+00
463 0.0000000000000000e+00 0.0000000000000000e+00 0.0000000000000000e+00
464 0.0000000000000000e+00 0.0000000000000000e+00 0.0000000000000000e+00
465 0.0000000000000000e+00 0.0000000000000000e+00 0.0000000000000000e+00
466 0.0000000000000000e+00 0.0000000000000000e+00 0.0000000000000000e+00
467 0.0000000000000000e+00 0.0000000000000000e+00 0.0000000000000000e+00
468 0.0000000000000000e+00 0.0000000000000000e+00 0.0000000000000000e+00
469 0.0000000000000000e+00 0.0000000000000000e+00 0.0000000000000000e+00
470 0.0000000000000000e+00 0.0000000000000000e+00 0.0000000000000000e+00
471 0.0000000000000000e+00 0.0000000000000000e+00 0.0000000000000000e+00
472 0.0000000000000000e+00 0.0000000000000000e+00 0.0000000000000000e+00
473 0.0000000000000000e+00 0.0000000000000000e+00 0.0000000000000000e+00
474 0.0000000000000000e+00 0.0000000000000000e+00 0.0000000000000000e+00
475 0.0000000000000000e+00 0.0000000000000000e+00 0.0000000000000000e+00
476 0.0000000000000000e+00 0.0000000000000000e+00 0.0000000000000000e+00
477 0.0000000000000000e+00 0.0000000000000000e+00 0.0000000000000000e+00

Bonds

1 1 1 2
2 1 2 3
3 1 3 4
4 1 4 5
5 1 5 6
6 1 6 7
7 1 7 8
8 1 8 9
9 1 9 10
10 1 10 11
11 1 11 12
12 1 12 13
13 1 13 14
14 1 14 15
15 1 15 16
16 1 16 17
17 1 17 18
18 1 18 19
19 1 19 20
20 1 20 21
21 1 21 22
22 1 22 23
23 1 23 24
24 1 24 25
25 1 25 26
26 1 26 27
27 1 27 28
28 1 28 29
29 1 29 30
30 1 30 31
31 1 31 32
32 1 32 33
33 1 33 34
34 1 34 35
35 1 35 36
36 1 36 37
37 1 37 38
38 1 38 39
39 1 39 40
40 1 40 41
41 1 41 42
42 1 42 43
43 1 43 44
44 1 44 45
45 1 45 46
46 1 46 47
47 1 47 48
48 1 48 49
49 1 49 50
50 1 50 51
51 1 51 52
52 1 52 53
53 1 53 54
54 1 54 55
55 1 55 56
56 1 56 57
57 1 57 58
58 1 58 59
59 1 59 60
60 1 60 61
61 1 61 62
62 1 62 63
63 1 63 64
64 1 64 65
65 1 65 66
66 1 66 67
67 1 67 68
68 1 68 69
69 1 69 70
70 1 70 71
71 1 71 72
72 1 72 73
73 1 73 74
74 1 74 75
75 1 75 76
76 1 76 77
77 1 77 78
78 1 78 79
79 1 79 80
80 1 80 81
81 1 81 82
82 1 82 83
83 1 83 84
84 1 84 85
85 1 85 86
86 1 86 87
87 1 87 88
88 1 88 89
89 1 89 90
90 1 90 91
91 1 91 92
92 1 92 93
93 1 93 94
94 1 94 95
95 1 95 96
96 1 96 97
97 1 97 98
98 1 98 99
99 1 99 100
100 1 100 101
101 1 101 102
102 1 102 103
103 1 103 104
104 1 104 105
105 1 105 106
106 1 106 107
107 1 107 108
108 1 108 109
109 1 109 110
110 1 110 111
111 1 111 112
112 1 112 113
113 1 113 114
114 1 114 115
115 1 115 116
116 1 116 117
117 1 117 118
118 1 118 119
119 1 119 120
120 1 120 121
121 1 121 122
122 1 122 123
123 1 123 124
124 1 124 125
125 1 125 126
126 1 126 127
127 1 127 128
128 1 128 129
129 1 129 130
130 1 130 131
131 1 131 132
132 1 132 133
133 1 133 134
134 1 134 135
135 1 135 136
136 1 136 137
137 1 137 138
138 1 138 139
139 1 139 140
140 1 140 141
141 1 141 142
142 1 142 143
143 1 143 144
144 1 144 145
145 1 145 146
146 1 146 147
147 1 147 148
148 1 148 149
149 1 149 150
150 1 150 151
151 1 151 152
152 1 152 153
153 1 153 154
154 1 154 155
155 1 155 156
156 1 156 157
157 1 157 158
158 1 158 159
159 1 159 160
160 1 160 161
161 1 161 162
162 1 162 163
163 1 163 164
164 1 164 165
165 1 165 166
166 1 166 167
167 1 167 168
168 1 168 169
169 1 169 170
170 1 170 171
171 1 171 172
172 1 172 173
173 1 173 174
174 1 174 175
175 1 175 176
176 1 176 177
177 1 177 178
178 1 178 179
179 1 179 180
180 1 180 181
181 1 181 182
182 1 182 183
183 1 183 184
184 1 184 185
185 1 185 186
186 1 186 187
187 1 187 188
188 1 188 189
189 1 189 190
190 1 190 191
191 1 191 192
192 1 192 193
193 1 193 194
194 1 194 195
195 1 195 196
196 1 196 197
197 1 197 198
198 1 198 199
199 1 199 200
200 1 200 201
201 1 201 202
202 1 202 203
203 1 203 204
204 1 204 205
205 1 205 206
206 1 206 207
207 1 207 208
208 1 208 209
209 1 209 210
210 1 210 211
211 1 211 212
212 1 212 213
213 1 213 214
214 1 214 215
215 1 215 216
216 1 216 217
217 1 217 218
218 1 218 219
219 1 219 220
220 1 220 221
221 1 221 222
222 1 222 223
223 1 223 224
224 1 224 225
225 1 225 226
226 1 226 227
227 1 227 228
228 1 228 229
229 1 229 230
230 1 230 231
231 1 231 232
232 1 232 233
233 1 233 234
234 1 234 235
235 1 235 236
236 1 236 237
237 1 237 238
238 1 238 239
239 1 239 240
240 1 240 241
241 1 241 242
242 1 242 243
243 1 243 244
244 1 244 245
245 1 245 246
246 1 246 247
247 1 247 248
248 1 248 249
249 1 249 250
250 1 250 251
251 1 251 252
252 1 252 253
253 1 253 254
254 1 254 255
255 1 255 256
256 1 256 257
257 1 257 258
258 1 258 259
259 1 259 260
260 1 260 261
261 1 261 262
262 1 262 263
263 1 263 264
264 1 264 265
265 1 265 266
266 1 266 267
267 1 267 268
268 1 268 269
269 1 269 270
270 1 270 271
271 1 271 272
272 1 272 273
273 1 273 274
274 1 274 275
275 1 275 276
276 1 276 277
277 1 277 278
278 1 278 279
279 1 279 280
280 1 280 281
281 1 281 282
282 1 282 283
283 1 283 284
284 1 284 285
285 1 285 286
286 1 286 287
287 1 287 288
288 1 288 289
289 1 289 290
290 1 290 291
291 1 291 292
292 1 292 293
293 1 293 294
294 1 294 295
295 1 295 296
296 1 296 297
297 1 297 298
298 1 298 299
299 1 299 300
300 1 300 301
301 1 301 302
302 1 302 303
303 1 303 304
304 1 304 305
305 1 305 306
306 1 306 307
307 1 307 308
308 1 308 309
309 1 309 310
310 1 310 311
311 1 311 312
312 1 312 313
313 1 313 314
314 1 314 315
315 1 315 316
316 1 316 317
317 1 317 318
318 1 318 319
319 1 319 320
320 1 320 321
321 1 321 322
322 1 322 323
323 1 323 324
324 1 324 325
325 1 325 326
326 1 326 327
327 1 327 328
328 1 328 329
329 1 329 330
330 1 330 331
331 1 331 332
332 1 332 333
333 1 333 334
334 1 334 335
335 1 335 336
336 1 336 337
337 1 337 338
338 1 338 339
339 1 339 340
340 1 340 341
341 1 341 342
342 1 342 343
343 1 343 344
344 1 344 345
345 1 345 346
346 1 346 347
347 1 347 348
348 1 348 349
349 1 349 350
350 1 350 351
351 1 351 352
352 1 352 353
353 1 353 354
354 1 354 355
355 1 355 356
356 1 356 357
357 1 357 358
358 1 358 359
359 1 359 360
360 1 360 361
361 1 361 362
362 1 362 363
363 1 363 364
364 1 364 365
365 1 365 366
366 1 366 367
367 1 367 368
368 1 368 369
369 1 369 370
370 1 370 371
371 1 371 372
372 1 372 373
373 1 373 374
374 1 374 375
375 1 375 376
376 1 376 377
377 1 377 378
378 1 378 379
379 1 379 380
380 1 380 381
381 1 381 382
382 1 382 383
383 1 383 384
384 1 384 385
385 1 385 386
386 1 386 387
387 1 387 388
388 1 388 389
389 1 389 390
390 1 390 391
391 1 391 392
392 1 392 393
393 1 393 394
394 1 394 395
395 1 395 396
396 1 396 397
397 1 397 398
398 1 398 399
399 1 399 400
400 1 400 401
401 1 401 402
402 1 402 403
403 1 403 404
404 1 404 405
405 1 405 406
406 1 406 407
407 1 407 408
408 1 408 409
409 1 409 410
410 1 410 411
411 1 411 412
412 1 412 413
413 1 413 414
414 1 414 415
415 1 415 416
416 1 416 417
417 1 417 418
418 1 418 419
419 1 419 420
420 1 420 421
421 1 421 422
422 1 422 423
423 1 423 424
424 1 424 425
425 1 425 426
426 1 426 427
427 1 427 428
428 1 428 429
429 1 429 430
430 1 430 431
431 1 431 432
432 1 432 433
433 1 433 434
434 1 434 435
435 1 435 436
436 1 436 437
437 1 437 438
438 1 438 439
439 1 439 440
440 1 440 441
441 1 441 442
442 1 442 443
443 1 443 444
444 1 444 445
445 1 445 446
446 1 446 447
447 1 447 448
448 1 448 449
449 1 449 450
450 1 450 451
451 1 451 452
452 1 452 453
453 1 453 454
454 1 454 455
455 1 455 456
456 1 456 457
457 1 457 458
458 1 458 459
459 1 459 460
460 1 460 461
461 1 461 462
462 1 462 463
463 1 463 464
464 1 464 465
465 1 465 466
466 1 466 467
467 1 467 468
468 1 468 469
469 1 469 470
470 1 470 471
471 1 471 472
472 1 472 473
473 1 473 474
474 1 474 475
475 1 475 476
476 1 476 477

Angles

1 1 1 2 3
2 1 2 3 4
3 1 3 4 5
4 1 4 5 6
5 1 5 6 7
6 1 6 7 8
7 1 7 8 9
8 1 8 9 10
9 1 9 10 11
10 1 10 11 12
11 1 11 12 13
12 1 12 13 14
13 1 13 14 15
14 1 14 15 16
15 1 15 16 17
16 1 16 17 18
17 1 17 18 19
18 1 18 19 20
19 1 19 20 21
20 1 20 21 22
21 1 21 22 23
22 1 22 23 24
23 1 23 24 25
24 1 24 25 26
25 1 25 26 27
26 1 26 27 28
27 1 27 28 29
28 1 28 29 30
29 1 29 30 31
30 1 30 31 32
31 1 31 32 33
32 1 32 33 34
33 1 33 34 35
34 1 34 35 36
35 1 35 36 37
36 1 36 37 38
37 1 37 38 39
38 1 38 39 40
39 1 39 40 41
40 1 40 41 42
41 1 41 42 43
42 1 42 43 44
43 1 43 44 45
44 1 44 45 46
45 1 45 46 47
46 1 46 47 48
47 1 47 48 49
48 1 48 49 50
49 1 49 50 51
50 1 50 51 52
51 1 51 52 53
52 1 52 53 54
53 1 53 54 55
54 1 54 55 56
55 1 55 56 57
56 1 56 57 58
57 1 57 58 59
58 1 58 59 60
59 1 59 60 61
60 1 60 61 62
61 1 61 62 63
62 1 62 63 64
63 1 63 64 65
64 1 64 65 66
65 1 65 66 67
66 1 66 67 68
67 1 67 68 69
68 1 68 69 70
69 1 69 70 71
70 1 70 71 72
71 1 71 72 73
72 1 72 73 74
73 1 73 74 75
74 1 74 75 76
75 1 75 76 77
76 1 76 77 78
77 1 77 78 79
78 1 78 79 80
79 1 79 80 81
80 1 80 81 82
81 1 81 82 83
82 1 82 83 84
83 1 83 84 85
84 1 84 85 86
85 1 85 86 87
86 1 86 87 88
87 1 87 88 89
88 1 88 89 90
89 1 89 90 91
90 1 90 91 92
91 1 91 92 93
92 1 92 93 94
93 1 93 94 95
94 1 94 95 96
95 1 95 96 97
96 1 96 97 98
97 1 97 98 99
98 1 98 99 100
99 1 99 100 101
100 1 100 101 102
101 1 101 102 103
102 1 102 103 104
103 1 103 104 105
104 1 104 105 106
105 1 105 106 107
106 1 106 107 108
107 1 107 108 109
108 1 108 109 110
109 1 109 110 111
110 1 110 111 112
111 1 111 112 113
112 1 112 113 114
113 1 113 114 115
114 1 114 115 116
115 1 115 116 117
116 1 116 117 118
117 1 117 118 119
118 1 118 119 120
119 1 119 120 121
120 1 120 121 122
121 1 121 122 123
122 1 122 123 124
123 1 123 124 125
124 1 124 125 126
125 1 125 126 127
126 1 126 127 128
127 1 127 128 129
128 1 128 129 130
129 1 129 130 131
130 1 130 131 132
131 1 131 132 133
132 1 132 133 134
133 1 133 134 135
134 1 134 135 136
135 1 135 136 137
136 1 136 137 138
137 1 137 138 139
138 1 138 139 140
139 1 139 140 141
140 1 140 141 142
141 1 141 142 143
142 1 142 143 144
143 1 143 144 145
144 1 144 145 146
145 1 145 146 147
146 1 146 147 148
147 1 147 148 149
148 1 148 149 150
149 1 149 150 151
150 1 150 151 152
151 1 151 152 153
152 1 152 153 154
153 1 153 154 155
154 1 154 155 156
155 1 155 156 157
156 1 156 157 158
157 1 157 158 159
158 1 158 159 160
159 1 159 160 161
160 1 160 161 162
161 1 161 162 163
162 1 162 163 164
163 1 163 164 165
164 1 164 165 166
165 1 165 166 167
166 1 166 167 168
167 1 167 168 169
168 1 168 169 170
169 1 169 170 171
170 1 170 171 172
171 1 171 172 173
172 1 172 173 174
173 1 173 174 175
174 1 174 175 176
175 1 175 176 177
176 1 176 177 178
177 1 177 178 179
178 1 178 179 180
179 1 179 180 181
180 1 180 181 182
181 1 181 182 183
182 1 182 183 184
183 1 183 184 185
184 1 184 185 186
185 1 185 186 187
186 1 186 187 188
187 1 187 188 189
188 1 188 189 190
189 1 189 190 191
190 1 190 191 192
191 1 191 192 193
192 1 192 193 194
193 1 193 194 195
194 1 194 195 196
195 1 195 196 197
196 1 196 197 198
197 1 197 198 199
198 1 198 199 200
199 1 199 200 201
200 1 200 201 202
201 1 201 202 203
202 1 202 203 204
203 1 203 204 205
204 1 204 205 206
205 1 205 206 207
206 1 206 207 208
207 1 207 208 209
208 1 208 209 210
209 1 209 210 211
210 1 210 211 212
211 1 211 212 213
212 1 212 213 214
213 1 213 214 215
214 1 214 215 216
215 1 215 216 217
216 1 216 217 218
217 1 217 218 219
218 1 218 219 220
219 1 219 220 221
220 1 220 221 222
221 1 221 222 223
222 1 222 223 224
223 1 223 224 225
224 1 224 225 226
225 1 225 226 227
226 1 226 227 228
227 1 227 228 229
228 1 228 229 230
229 1 229 230 231
230 1 230 231 232
231 1 231 232 233
232 1 232 233 234
233 1 233 234 235
234 1 234 235 236
235 1 235 236 237
236 1 236 237 238
237 1 237 238 239
238 1 238 239 240
239 1 239 240 241
240 1 240 241 242
241 1 241 242 243
242 1 242 243 244
243 1 243 244 245
244 1 244 245 246
245 1 245 246 247
246 1 246 247 248
247 1 247 248 249
248 1 248 249 250
249 1 249 250 251
250 1 250 251 252
251 1 251 252 253
252 1 252 253 254
253 1 253 254 255
254 1 254 255 256
255 1 255 256 257
256 1 256 257 258
257 1 257 258 259
258 1 258 259 260
259 1 259 260 261
260 1 260 261 262
261 1 261 262 263
262 1 262 263 264
263 1 263 264 265
264 1 264 265 266
265 1 265 266 267
266 1 266 267 268
267 1 267 268 269
268 1 268 269 270
269 1 269 270 271
270 1 270 271 272
271 1 271 272 273
272 1 272 273 274
273 1 273 274 275
274 1 274 275 276
275 1 275 276 277
276 1 276 277 278
277 1 277 278 279
278 1 278 279 280
279 1 279 280 281
280 1 280 281 282
281 1 281 282 283
282 1 282 283 284
283 1 283 284 285
284 1 284 285 286
285 1 285 286 287
286 1 286 287 288
287 1 287 288 289
288 1 288 289 290
289 1 289 290 291
290 1 290 291 292
291 1 291 292 293
292 1 292 293 294
293 1 293 294 295
294 1 294 295 296
295 1 295 296 297
296 1 296 297 298
297 1 297 298 299
298 1 298 299 300
299 1 299 300 301
300 1 300 301 302
301 1 301 302 303
302 1 302 303 304
303 1 303 304 305
304 1 304 305 306
305 1 305 306 307
306 1 306 307 308
307 1 307 308 309
308 1 308 309 310
309 1 309 310 311
310 1 310 311 312
311 1 311 312 313
312 1 312 313 314
313 1 313 314 315
314 1 314 315 316
315 1 315 316 317
316 1 316 317 318
317 1 317 318 319
318 1 318 319 320
319 1 319 320 321
320 1 320 321 322
321 1 321 322 323
322 1 322 323 324
323 1 323 324 325
324 1 324 325 326
325 1 325 326 327
326 1 326 327 328
327 1 327 328 329
328 1 328 329 330
329 1 329 330 331
330 1 330 331 332
331 1 331 332 333
332 1 332 333 334
333 1 333 334 335
334 1 334 335 336
335 1 335 336 337
336 1 336 337 338
337 1 337 338 339
338 1 338 339 340
339 1 339 340 341
340 1 340 341 342
341 1 341 342 343
342 1 342 343 344
343 1 343 344 345
344 1 344 345 346
345 1 345 346 347
346 1 346 347 348
347 1 347 348 349
348 1 348 349 350
349 1 349 350 351
350 1 350 351 352
351 1 351 352 353
352 1 352 353 354
353 1 353 354 355
354 1 354 355 356
355 1 355 356 357
356 1 356 357 358
357 1 357 358 359
358 1 358 359 360
359 1 359 360 361
360 1 360 361 362
361 1 361 362 363
362 1 362 363 364
363 1 363 364 365
364 1 364 365 366
365 1 365 366 367
366 1 366 367 368
367 1 367 368 369
368 1 368 369 370
369 1 369 370 371
370 1 370 371 372
371 1 371 372 373
372 1 372 373 374
373 1 373 374 375
374 1 374 375 376
375 1 375 376 377
376 1 376 377 378
377 1 377 378 379
378 1 378 379 380
379 1 379 380 381
380 1 380 381 382
381 1 381 382 383
382 1 382 383 384
383 1 383 384 385
384 1 384 385 386
385 1 385 386 387
386 1 386 387 388
387 1 387 388 389
388 1 388 389 390
389 1 389 390 391
390 1 390 391 392
391 1 391 392 393
392 1 392 393 394
393 1 393 394 395
394 1 394 395 396
395 1 395 396 397
396 1 396 397 398
397 1 397 398 399
398 1 398 399 400
399 1 399 400 401
400 1 400 401 402
401 1 401 402 403
402 1 402 403 404
403 1 403 404 405
404 1 404 405 406
405 1 405 406 407
406 1 406 407 408
407 1 407 408 409
408 1 408 409 410
409 1 409 410 411
410 1 410 411 412
411 1 411 412 413
412 1 412 413 414
413 1 413 414 415
414 1 414 415 416
415 1 415 416 417
416 1 416 417 418
417 1 417 418 419
418 1 418 419 420
419 1 419 420 421
420 1 420 421 422
421 1 421 422 423
422 1 422 423 424
423 1 423 424 425
424 1 424 425 426
425 1 425 426 427
426 1 426 427 428
427 1 427 428 429
428 1 428 429 430
429 1 429 430 431
430 1 430 431 432
431 1 431 432 433
432 1 432 433 434
433 1 433 434 435
434 1 434 435 436
435 1 435 436 437
436 1 436 437 438
437 1 437 438 439
438 1 438 439 440
439 1 439 440 441
440 1 440 441 442
441 1 441 442 443
442 1 442 443 444
443 1 443 444 445
444 1 444 445 446
445 1 445 446 447
446 1 446 447 448
447 1 447 448 449
448 1 448 449 450
449 1 449 450 451
450 1 450 451 452
451 1 451 452 453
452 1 452 453 454
453 1 453 454 455
454 1 454 455 456
455 1 455 456 457
456 1 456 457 458
457 1 457 458 459
458 1 458 459 460
459 1 459 460 461
460 1 460 461 462
461 1 461 462 463
462 1 462 463 464
463 1 463 464 465
464 1 464 465 466
465 1 465 466 467
466 1 466 467 468
467 1 467 468 469
468 1 468 469 470
469 1 469 470 471
470 1 470 471 472
471 1 471 472 473
472 1 472 473 474
473 1 473 474 475
474 1 474 475 476
475 1 475 476 477

Dihedrals

1 1 1 2 3 4
2 1 2 3 4 5
3 1 3 4 5 6
4 1 4 5 6 7
5 1 5 6 7 8
6 1 6 7 8 9
7 1 7 8 9 10
8 1 8 9 10 11
9 1 9 10 11 12
10 1 10 11 12 13
11 1 11 12 13 14
12 1 12 13 14 15
13 1 13 14 15 16
14 1 14 15 16 17
15 1 15 16 17 18
16 1 16 17 18 19
17 1 17 18 19 20
18 1 18 19 20 21
19 1 19 20 21 22
20 1 20 21 22 23
21 1 21 22 23 24
22 1 22 23 24 25
23 1 23 24 25 26
24 1 24 25 26 27
25 1 25 26 27 28
26 1 26 27 28 29
27 1 27 28 29 30
28 1 28 29 30 31
29 1 29 30 31 32
30 1 30 31 32 33
31 1 31 32 33 34
32 1 32 33 34 35
33 1 33 34 35 36
34 1 34 35 36 37
35 1 35 36 37 38
36 1 36 37 38 39
37 1 37 38 39 40
38 1 38 39 40 41
39 1 39 40 41 42
40 1 40 41 42 43
41 1 41 42 43 44
42 1 42 43 44 45
43 1 43 44 45 46
44 1 44 45 46 47
45 1 45 46 47 48
46 1 46 47 48 49
47 1 47 48 49 50
48 1 48 49 50 51
49 1 49 50 51 52
50 1 50 51 52 53
51 1 51 52 53 54
52 1 52 53 54 55
53 1 53 54 55 56
54 1 54 55 56 57
55 1 55 56 57 58
56 1 56 57 58 59
57 1 57 58 59 60
58 1 58 59 60 61
59 1 59 60 61 62
60 1 60 61 62 63
61 1 61 62 63 64
62 1 62 63 64 65
63 1 63 64 65 66
64 1 64 65 66 67
65 1 65 66 67 68
66 1 66 67 68 69
67 1 67 68 69 70
68 1 68 69 70 71
69 1 69 70 71 72
70 1 70 71 72 73
71 1 71 72 73 74
72 1 72 73 74 75
73 1 73 74 75 76
74 1 74 75 76 77
75 1 75 76 77 78
76 1 76 77 78 79
77 1 77 78 79 80
78 1 78 79 80 81
79 1 79 80 81 82
80 1 80 81 82 83
81 1 81 82 83 84
82 1 82 83 84 85
83 1 83 84 85 86
84 1 84 85 86 87
85 1 85 86 87 88
86 1 86 87 88 89
87 1 87 88 89 90
88 1 88 89 90 91
89 1 89 90 91 92
90 1 90 91 92 93
91 1 91 92 93 94
92 1 92 93 94 95
93 1 93 94 95 96
94 1 94 95 96 97
95 1 95 96 97 98
96 1 96 97 98 99
97 1 97 98 99 100
98 1 98 99 100 101
99 1 99 100 101 102
100 1 100 101 102 103
101 1 101 102 103 104
102 1 102 103 104 105
103 1 103 104 105 106
104 1 104 105 106 107
105 1 105 106 107 108
106 1 106 107 108 109
107 1 107 108 109 110
108 1 108 109 110 111
109 1 109 110 111 112
110 1 110 111 112 113
111 1 111 112 113 114
112 1 112 113 114 115
113 1 113 114 115 116
114 1 114 115 116 117
115 1 115 116 117 118
116 1 116 117 118 119
117 1 117 118 119 120
118 1 118 119 120 121
119 1 119 120 121 122
120 1 120 121 122 123
121 1 121 122 123 124
122 1 122 123 124 125
123 1 123 124 125 126
124 1 124 125 126 127
125 1 125 126 127 128
126 1 126 127 128 129
127 1 127 128 129 130
128 1 128 129 130 131
129 1 129 130 131 132
130 1 130 131 132 133
131 1 131 132 133 134
132 1 132 133 134 135
133 1 133 134 135 136
134 1 134 135 136 137
135 1 135 136 137 138
136 1 136 137 138 139
137 1 137 138 139 140
138 1 138 139 140 141
139 1 139 140 141 142
140 1 140 141 142 143
141 1 141 142 143 144
142 1 142 143 144 145
143 1 143 144 145 146
144 1 144 145 146 147
145 1 145 146 147 148
146 1 146 147 148 149
147 1 147 148 149 150
148 1 148 149 150 151
149 1 149 150 151 152
150 1 150 151 152 153
151 1 151 152 153 154
152 1 152 153 154 155
153 1 153 154 155 156
154 1 154 155 156 157
155 1 155 156 157 158
156 1 156 157 158 159
157 1 157 158 159 160
158 1 158 159 160 161
159 1 159 160 161 162
160 1 160 161 162 163
161 1 161 162 163 164
162 1 162 163 164 165
163 1 163 164 165 166
164 1 164 165 166 167
165 1 165 166 167 168
166 1 166 167 168 169
167 1 167 168 169 170
168 1 168 169 170 171
169 1 169 170 171 172
170 1 170 171 172 173
171 1 171 172 173 174
172 1 172 173 174 175
173 1 173 174 175 176
174 1 174 175 176 177
175 1 175 176 177 178
176 1 176 177 178 179
177 1 177 178 179 180
178 1 178 179 180 181
179 1 179 180 181 182
180 1 180 181 182 183
181 1 181 182 183 184
182 1 182 183 184 185
183 1 183 184 185 186
184 1 184 185 186 187
185 1 185 186 187 188
186 1 186 187 188 189
187 1 187 188 189 190
188 1 188 189 190 191
189 1 189 190 191 192
190 1 190 191 192 193
191 1 191 192 193 194
192 1 192 193 194 195
193 1 193 194 195 196
194 1 194 195 196 197
195 1 195 196 197 198
196 1 196 197 198 199
197 1 197 198 199 200
198 1 198 199 200 201
199 1 199 200 201 202
200 1 200 201 202 203
201 1 201 202 203 204
202 1 202 203 204 205
203 1 203 204 205 206
204 1 204 205 206 207
205 1 205 206 207 208
206 1 206 207 208 209
207 1 207 208 209 210
208 1 208 209 210 211
209 1 209 210 211 212
210 1 210 211 212 213
211 1 211 212 213 214
212 1 212 213 214 215
213 1 213 214 215 216
214 1 214 215 216 217
215 1 215 216 217 218
216 1 216 217 218 219
217 1 217 218 219 220
218 1 218 219 220 221
219 1 219 220 221 222
220 1 220 221 222 223
221 1 221 222 223 224
222 1 222 223 224 225
223 1 223 224 225 226
224 1 224 225 226 227
225 1 225 226 227 228
226 1 226 227 228 229
227 1 227 228 229 230
228 1 228 229 230 231
229 1 229 230 231 232
230 1 230 231 232 233
231 1 231 232 233 234
232 1 232 233 234 235
233 1 233 234 235 236
234 1 234 235 236 237
235 1 235 236 237 238
236 1 236 237 238 239
237 1 237 238 239 240
238 1 238 239 240 241
239 1 239 240 241 242
240 1 240 241 242 243
241 1 241 242 243 244
242 1 242 243 244 245
243 1 243 244 245 246
244 1 244 245 246 247
245 1 245 246 247 248
246 1 246 247 248 249
247 1 247 248 249 250
248 1 248 249 250 251
249 1 249 250 251 252
250 1 250 251 252 253
251 1 251 252 253 254
252 1 252 253 254 255
253 1 253 254 255 256
254 1 254 255 256 257
255 1 255 256 257 258
256 1 256 257 258 259
257 1 257 258 259 260
258 1 258 259 260 261
259 1 259 260 261 262
260 1 260 261 262 263
261 1 261 262 263 264
262 1 262 263 264 265
263 1 263 264 265 266
264 1 264 265 266 267
265 1 265 266 267 268
266 1 266 267 268 269
267 1 267 268 269 270
268 1 268 269 270 271
269 1 269 270 271 272
270 1 270 271 272 273
271 1 271 272 273 274
272 1 272 273 274 275
273 1 273 274 275 276
274 1 274 275 276 277
275 1 275 276 277 278
276 1 276 277 278 279
277 1 277 278 279 280
278 1 278 279 280 281
279 1 279 280 281 282
280 1 280 281 282 283
281 1 281 282 283 284
282 1 282 283 284 285
283 1 283 284 285 286
284 1 284 285 286 287
285 1 285 286 287 288
286 1 286 287 288 289
287 1 287 288 289 290
288 1 288 289 290 291
289 1 289 290 291 292
290 1 290 291 292 293
291 1 291 292 293 294
292 1 292 293 294 295
293 1 293 294 295 296
294 1 294 295 296 297
295 1 295 296 297 298
296 1 296 297 298 299
297 1 297 298 299 300
298 1 298 299 300 301
299 1 299 300 301 302
300 1 300 301 302 303
301 1 301 302 303 304
302 1 302 303 304 305
303 1 303 304 305 306
304 1 304 305 306 307
305 1 305 306 307 308
306 1 306 307 308 309
307 1 307 308 309 310
308 1 308 309 310 311
309 1 309 310 311 312
310 1 310 311 312 313
311 1 311 312 313 314
312 1 312 313 314 315
313 1 313 314 315 316
314 1 314 315 316 317
315 1 315 316 317 318
316 1 316 317 318 319
317 1 317 318 319 320
318 1 318 319 320 321
319 1 319 320 321 322
320 1 320 321 322 323
321 1 321 322 323 324
322 1 322 323 324 325
323 1 323 324 325 326
324 1 324 325 326 327
325 1 325 326 327 328
326 1 326 327 328 329
327 1 327 328 329 330
328 1 328 329 330 331
329 1 329 330 331 332
330 1 330 331 332 333
331 1 331 332 333 334
332 1 332 333 334 335
333 1 333 334 335 336
334 1 334 335 336 337
335 1 335 336 337 338
336 1 336 337 338 339
337 1 337 338 339 340
338 1 338 339 340 341
339 1 339 340 341 342
340 1 340 341 342 343
341 1 341 342 343 344
342 1 342 343 344 345
343 1 343 344 345 346
344 1 344 345 346 347
345 1 345 346 347 348
346 1 346 347 348 349
347 1 347 348 349 350
348 1 348 349 350 351
349 1 349 350 351 352
350 1 350 351 352 353
351 1 351 352 353 354
352 1 352 353 354 355
353 1 353 354 355 356
354 1 354 355 356 357
355 1 355 356 357 358
356 1 356 357 358 359
357 1 357 358 359 360
358 1 358 359 360 361
359 1 359 360 361 362
360 1 360 361 362 363
361 1 361 362 363 364
362 1 362 363 364 365
363 1 363 364 365 366
364 1 364 365 366 367
365 1 365 366 367 368
366 1 366 367 368 369
367 1 367 368 369 370
368 1 368 369 370 371
369 1 369 370 371 372
370 1 370 371 372 373
371 1 371 372 373 374
372 1 372 373 374 375
373 1 373 374 375 376
374 1 374 375 376 377
375 1 375 376 377 378
376 1 376 377 378 379
377 1 377 378 379 380
378 1 378 379 380 381
379 1 379 380 381 382
380 1 380 381 382 383
381 1 381 382 383 384
382 1 382 383 384 385
383 1 383 384 385 386
384 1 384 385 386 387
385 1 385 386 387 388
386 1 386 387 388 389
387 1 387 388 389 390
388 1 388 389 390 391
389 1 389 390 391 392
390 1 390 391 392 393
391 1 391 392 393 394
392 1 392 393 394 395
393 1 393 394 395 396
394 1 394 395 396 397
395 1 395 396 397 398
396 1 396 397 398 399
397 1 397 398 399 400
398 1 398 399 400 401
399 1 399 400 401 402
400 1 400 401 402 403
401 1 401 402 403 404
402 1 402 403 404 405
403 1 403 404 405 406
404 1 404 405 406 407
405 1 405 406 407 408
406 1 406 407 408 409
407 1 407 408 409 410
408 1 408 409 410 411
409 1 409 410 411 412
410 1 410 411 412 413
411 1 411 412 413 414
412 1 412 413 414 415
413 1 413 414 415 416
414 1 414 415 416 417
415 1 415 416 417 418
416 1 416 417 418 419
417 1 417 418 419 420
418 1 418 419 420 421
419 1 419 420 421 422
420 1 420 421 422 423
421 1 421 422 423 424
422 1 422 423 424 425
423 1 423 424 425 426
424 1 424 425 426 427
425 1 425 426 427 428
426 1 426 427 428 429
427 1 427 428 429 430
428 1 428 429 430 431
429 1 429 430 431 432
430 1 430 431 432 433
431 1 431 432 433 434
432 1 432 433 434 435
433 1 433 434 435 436
434 1 434 435 436 437
435 1 435 436 437 438
436 1 436 437 438 439
437 1 437 438 439 440
438 1 438 439 440 441
439 1 439 440 441 442
440 1 440 441 442 443
441 1 441 442 443 444
442 1 442 443 444 445
443 1 443 444 445 446
444 1 444 445 446 447
445 1 445 446 447 448
446 1 446 447 448 449
447 1 447 448 449 450
448 1 448 449 450 451
449 1 449 450 451 452
450 1 450 451 452 453
451 1 451 452 453 454
452 1 452 453 454 455
453 1 453 454 455 456
454 1 454 455 456 457
455 1 455 456 457 458
456 1 456 457 458 459
457 1 457 458 459 460
458 1 458 459 460 461
459 1 459 460 461 462
460 1 460 461 462 463
461 1 461 462 463 464
462 1 462 463 464 465
463 1 463 464 465 466
464 1 464 465 466 467
465 1 465 466 467 468
466 1 466 467 468 469
467 1 467 468 469 470
468 1 468 469 470 471
469 1 469 470 471 472
470 1 470 471 472 473
471 1 471 472 473 474
472 1 472 473 474 475
473 1 473 474 475 476
474 1 474 475 476 477
