LAMMPS data file via write_data, version 3 Mar 2020, timestep = 101000000

24 atoms
1 atom types
23 bonds
1 bond types
22 angles
1 angle types
21 dihedrals
1 dihedral types

-1.3500000000000000e+01 3.6500000000000000e+01 xlo xhi
-2.5000000000000000e+01 2.5000000000000000e+01 ylo yhi
-2.5000000000000000e+01 2.5000000000000000e+01 zlo zhi

Masses

1 1

Bond Coeffs # harmonic

1 30 1

Angle Coeffs # harmonic

1 10 140

Dihedral Coeffs # multi/harmonic

1 1 1 1 1 1

Atoms # full

3 1 1 -2.0000000000000000e+00 9.7285412451772793e+00 -1.8055581765063740e+00 -1.1064716342425324e+01 -8 -1 3
2 1 1 -2.0000000000000000e+00 1.0378448196203550e+01 -1.7319406318230077e+00 -1.1857708144606351e+01 -8 -1 3
1 1 1 -2.0000000000000000e+00 1.0545554640315753e+01 -2.1220139743523325e+00 -1.2713202990128844e+01 -8 -1 3
5 1 1 -2.0000000000000000e+00 1.0112816941948470e+01 -1.7904138519889898e+00 -9.1767400015589242e+00 -4 -1 3
4 1 1 -2.0000000000000000e+00 9.9361069139382323e+00 -1.3471278493988785e+00 -1.0273385579821250e+01 -8 -1 3
6 1 1 -2.0000000000000000e+00 1.0630646009723932e+01 -2.0766673605979031e+00 -8.5743036736093945e+00 -8 -1 3
7 1 1 -2.0000000000000000e+00 1.0611889784396720e+01 -2.2878079075194315e+00 -7.8016474159423952e+00 -8 -1 3
8 1 1 -2.0000000000000000e+00 1.0965058362993318e+01 -3.1792275911693162e+00 -7.2907950167317175e+00 -8 -1 3
11 1 1 -2.0000000000000000e+00 1.1006595909198577e+01 -4.7650804166092602e+00 -4.7949672599288258e+00 -8 -1 3
9 1 1 -2.0000000000000000e+00 1.0751526593424662e+01 -3.6002244417167253e+00 -6.2438564693630472e+00 -8 -1 3
10 1 1 -2.0000000000000000e+00 1.1320254864715530e+01 -3.9896669066084876e+00 -5.5680133382436550e+00 -8 -1 3
23 1 1 -2.0000000000000000e+00 1.4107603790143973e+01 -1.2513082415719882e+01 -3.5825775352022262e+00 -8 -1 3
24 1 1 -2.0000000000000000e+00 1.3908301657886193e+01 -1.3615385799979153e+01 -3.9168911290196227e+00 -8 -1 3
13 1 1 -2.0000000000000000e+00 1.0426129402809554e+01 -6.5991828162708073e+00 -3.9041653410546564e+00 -8 -1 3
14 1 1 -2.0000000000000000e+00 1.0767270884509504e+01 -7.4624294561704865e+00 -3.8042534570486874e+00 -8 -1 3
12 1 1 -2.0000000000000000e+00 1.0702980419810279e+01 -5.8742138939459450e+00 -4.5772879539208571e+00 -8 -1 3
19 1 1 -2.0000000000000000e+00 1.3938527089224511e+01 -9.3311319329640749e+00 -3.9399315872813250e+00 -8 -1 3
21 1 1 -2.0000000000000000e+00 1.4216998241463427e+01 -1.0956357086056622e+01 -3.4429256307325811e+00 -8 -1 3
20 1 1 -2.0000000000000000e+00 1.4284813436002457e+01 -1.0074457077668901e+01 -3.5679111555966059e+00 -8 -1 3
22 1 1 -2.0000000000000000e+00 1.4454381401964657e+01 -1.1666445098732177e+01 -3.6120906983961167e+00 -8 -1 3
17 1 1 -2.0000000000000000e+00 1.2919127343413153e+01 -8.2649413222402739e+00 -2.5729727194848984e+00 -8 -1 3
18 1 1 -2.0000000000000000e+00 1.3889855854919915e+01 -8.5572158251803980e+00 -3.0574493956688618e+00 -8 -1 3
15 1 1 -2.0000000000000000e+00 1.1412954115243465e+01 -7.4743398755550494e+00 -2.9748822455970836e+00 -8 -1 3
16 1 1 -2.0000000000000000e+00 1.2468055987949972e+01 -7.7314861581850876e+00 -2.7803760901548338e+00 -8 -1 3

Velocities

3 -3.8273699898072033e-01 -7.3391718237656745e-01 -3.2187559444601477e-01
2 -7.1986981167584663e-01 -5.7481769164420915e-01 -9.7934558299211744e-02
1 -8.7998002261620278e-01 -6.0955822038893404e-01 -2.2205123966832913e-03
5 -4.3551994754688167e-01 -1.3584537820786957e+00 -1.4700879199978642e-01
4 -8.5247020891223269e-01 4.1051080585759014e-02 -5.0576139598001757e-01
6 1.5663450954352947e+00 2.9597270020535427e-01 -8.0007888465769217e-01
7 1.4354364151301902e-01 -4.3640695935100920e-01 2.1177425109979159e-01
8 -1.7073577348315854e+00 -1.3423144195637144e+00 4.1719073464303189e-02
11 -6.9164255736592728e-01 1.0271854703927572e+00 3.1872003887716965e-01
9 -4.7545920740167574e-01 2.0641267838035895e+00 1.6160053331945077e+00
10 -1.7948196641693852e+00 -1.0870800591755734e+00 -8.1603620411427835e-01
23 1.4042388642190591e+00 3.3143931147039979e-01 -1.8094275546624556e+00
24 -5.9307669383205952e-01 -1.2557160478422340e+00 -5.2289391189065548e-01
13 -1.1847407299509152e+00 2.1598040583185059e+00 -2.3450746159876394e+00
14 2.0283217114004817e+00 -3.4863714616381236e-01 1.4942190646707258e+00
12 -5.5937225990927786e-01 -2.9432924356309004e-01 1.7787017204196334e-01
19 -1.4775642368390054e+00 1.4719709589608445e+00 1.4042388663309959e+00
21 1.1154529561519246e+00 2.7249060807415343e-01 5.3969244772834712e-01
20 -7.8778609280411860e-02 -2.0025822294269169e+00 -3.8039981981206761e-01
22 -4.6293681755565141e-01 -1.6957679479238206e+00 -2.3717251238105372e-01
17 -1.0297149427292138e+00 -2.3162063320474088e-01 -1.4852154256383926e-01
18 -4.0335324199370060e-01 9.1311478899810905e-01 1.1645929148437091e+00
15 1.8221050323618317e+00 -7.0531455187942060e-01 -6.7841519129684807e-02
16 1.0637038351095034e+00 3.0985363175296637e-01 9.7577328925944218e-01

Bonds

1 1 3 4
2 1 2 3
3 1 1 2
4 1 5 6
5 1 4 5
6 1 6 7
7 1 7 8
8 1 8 9
9 1 11 12
10 1 9 10
11 1 10 11
12 1 23 24
13 1 13 14
14 1 14 15
15 1 12 13
16 1 19 20
17 1 21 22
18 1 20 21
19 1 22 23
20 1 17 18
21 1 18 19
22 1 15 16
23 1 16 17

Angles

1 1 2 3 4
2 1 1 2 3
3 1 4 5 6
4 1 3 4 5
5 1 5 6 7
6 1 6 7 8
7 1 7 8 9
8 1 10 11 12
9 1 8 9 10
10 1 9 10 11
11 1 22 23 24
12 1 12 13 14
13 1 13 14 15
14 1 11 12 13
15 1 18 19 20
16 1 20 21 22
17 1 19 20 21
18 1 21 22 23
19 1 16 17 18
20 1 17 18 19
21 1 14 15 16
22 1 15 16 17

Dihedrals

1 1 2 3 4 5
2 1 1 2 3 4
3 1 4 5 6 7
4 1 3 4 5 6
5 1 5 6 7 8
6 1 6 7 8 9
7 1 7 8 9 10
8 1 10 11 12 13
9 1 8 9 10 11
10 1 9 10 11 12
11 1 12 13 14 15
12 1 13 14 15 16
13 1 11 12 13 14
14 1 18 19 20 21
15 1 20 21 22 23
16 1 19 20 21 22
17 1 21 22 23 24
18 1 16 17 18 19
19 1 17 18 19 20
20 1 14 15 16 17
21 1 15 16 17 18
